%nprocshared=1
%mem=2GB
#HF/6-31G* nosymm scf=tight 

Mol

0 1
O	 -2.042549	 -1.228399	 -0.269030
C	 -1.653912	 -0.146171	 0.050137
C	 -0.332303	 0.024011	 0.778412
C	 -2.438579	 1.106236	 -0.272369
C	 0.650782	 -1.095374	 0.401062
H	 0.105445	 0.992350	 0.552401
H	 -0.535769	 -0.015530	 1.842818
C	 0.214138	 -2.464095	 0.925443
H	 1.640729	 -0.862023	 0.789180
H	 0.740277	 -1.127348	 -0.680654
C	 -1.254709	 -2.767979	 0.633295
H	 0.838735	 -3.237002	 0.482817
H	 0.386344	 -2.507683	 1.998296
H	 -1.451443	 -2.765187	 -0.435041
H	 -1.905957	 -2.029296	 1.091187
H	 -1.536859	 -3.742565	 1.018781
H	 -3.277823	 0.863061	 -0.908988
H	 -1.806773	 1.843019	 -0.759671
H	 -2.802853	 1.554979	 0.648059

11 8 5 9 F

9 5 3 2 F

