%nprocshared=1
%mem=2GB
#HF/6-31G* nosymm scf=tight 

Mol

0 1
H	 -2.646374	 -0.642757	 1.268656
C	 -2.083525	 -0.384536	 0.393091
O	 -0.807605	 -0.127164	 0.768327
F	 -2.118945	 -1.383102	 -0.486752
F	 -2.621877	 0.670592	 -0.209486
C	 0.137144	 0.037049	 -0.228252
C	 -0.419804	 1.065717	 -1.203860
Cl	 0.456720	 -1.496922	 -1.054095
H	 1.074215	 0.404333	 0.152241
F	 -1.451779	 0.571017	 -1.853814
F	 0.514057	 1.363980	 -2.084985
F	 -0.789827	 2.169378	 -0.601375

10 7 6 9 F

9 6 3 2 F

