%nprocshared=1
%mem=2GB
#HF/6-31G* nosymm scf=tight 

Mol

0 1
H	 -3.489899	 1.228218	 -1.029938
O	 -3.452007	 0.283848	 -0.965577
C	 -3.181085	 -0.079926	 0.364119
C	 -1.765924	 0.277073	 0.805136
H	 -3.327791	 -1.152017	 0.410903
H	 -3.905698	 0.375695	 1.036898
C	 -1.289820	 -0.511191	 2.025989
H	 -1.082423	 0.112040	 -0.028262
H	 -1.732549	 1.344362	 1.017276
C	 -2.051235	 -0.155457	 3.304613
H	 -0.228099	 -0.336828	 2.171096
H	 -1.399456	 -1.575641	 1.825192
C	 -3.569314	 -0.140497	 3.106372
H	 -1.785291	 -0.865811	 4.083773
H	 -1.726904	 0.822155	 3.659139
C	 -4.085257	 0.971831	 2.186217
H	 -4.057800	 -0.058760	 4.076112
H	 -3.875610	 -1.099379	 2.693401
C	 -5.549450	 0.823490	 1.768439
H	 -3.468292	 0.991881	 1.291096
H	 -3.944306	 1.935085	 2.672506
H	 -5.723126	 -0.136799	 1.290087
H	 -5.829128	 1.598849	 1.061732
H	 -6.223416	 0.897908	 2.615431

20 16 13 17 F

17 13 10 7 F

13 10 7 11 F

11 7 4 3 F

1 2 3 5 F

