%nprocshared=1
%mem=2GB
#HF/6-31G* nosymm scf=tight 

Mol

0 1
H	 -2.240291	 0.559484	 0.604969
C	 -2.008299	 -0.205926	 -0.129530
O	 -0.774054	 0.001095	 -0.743181
H	 -2.752932	 -0.160639	 -0.912984
H	 -2.076115	 -1.178578	 0.348530
C	 0.384266	 -0.621103	 -0.216212
C	 1.446966	 -0.368641	 -1.283425
C	 0.807049	 0.027622	 1.105756
C	 0.170120	 -2.127606	 -0.038147
H	 1.581942	 0.696920	 -1.431047
H	 1.138234	 -0.802755	 -2.227674
H	 2.399481	 -0.802635	 -0.997024
H	 0.886482	 1.103154	 0.987637
H	 1.773419	 -0.353558	 1.419497
H	 0.103207	 -0.176710	 1.905387
H	 -0.197458	 -2.566190	 -0.959875
H	 1.105828	 -2.612248	 0.220900
H	 -0.539169	 -2.349558	 0.751965

2 3 6 7 F

