%nprocshared=1
%mem=2GB
#HF/6-31G* nosymm scf=tight 

Mol

0 1
O	 -0.488453	 0.057968	 1.132425
C	 -0.451170	 -1.129930	 1.097049
C	 0.801727	 -1.959116	 0.945507
O	 -1.528589	 -1.897310	 1.185968
C	 1.124911	 -2.785238	 2.184071
H	 1.613075	 -1.280220	 0.700432
H	 0.669725	 -2.590969	 0.072237
H	 1.272053	 -2.149836	 3.048928
H	 2.030738	 -3.360307	 2.024106
H	 0.320287	 -3.472711	 2.414906
C	 -1.936307	 -2.597081	 0.014863
C	 -2.438325	 -1.568793	 -0.976558
H	 -2.707800	 -3.307342	 0.279269
H	 -1.093901	 -3.151342	 -0.375955
H	 -3.278341	 -1.018609	 -0.568112
H	 -2.760888	 -2.061279	 -1.888182
H	 -1.655655	 -0.861728	 -1.227041

2 4 11 13 F

4 2 3 6 F

