%nprocshared=1
%mem=2GB
#HF/6-31G* nosymm scf=tight 

Mol

0 1
H	 2.756595	 0.102083	 -0.059233
N	 1.778921	 0.315423	 -0.060532
C	 1.158836	 -0.138230	 1.170892
C	 1.134409	 -0.264749	 -1.224455
H	 1.658506	 0.332632	 2.010765
H	 1.229445	 -1.220801	 1.300101
C	 -0.310155	 0.257310	 1.164236
H	 1.616390	 0.114491	 -2.119239
H	 1.203539	 -1.354983	 -1.240324
C	 -0.334567	 0.130870	 -1.229627
H	 -0.386012	 1.348543	 1.187795
H	 -0.793761	 -0.127125	 2.056358
N	 -0.975995	 -0.298722	 0.000000
H	 -0.835802	 -0.344876	 -2.066271
H	 -0.412059	 1.213632	 -1.366448
C	 -2.393863	 -0.024976	 0.000000
H	 -2.854032	 -0.467193	 -0.876721
H	 -2.854032	 -0.467193	 0.876721
H	 -2.623281	 1.044943	 0.000000
