%nprocshared=1
%mem=2GB
#HF/6-31G* nosymm scf=tight 

Mol

0 1
H	 -2.240291	 0.559484	 0.604969
C	 -2.008299	 -0.205926	 -0.129530
O	 -0.774054	 0.001095	 -0.743181
H	 -2.752932	 -0.160639	 -0.912984
H	 -2.076115	 -1.178578	 0.348530
C	 -0.690409	 0.831608	 -1.887638
C	 0.811955	 1.009386	 -2.095742
C	 -1.310273	 0.149826	 -3.111620
C	 -1.347198	 2.192029	 -1.632685
H	 1.284037	 0.045647	 -2.249941
H	 1.258569	 1.466627	 -1.220047
H	 1.015732	 1.637325	 -2.957037
H	 -0.890134	 -0.841911	 -3.241882
H	 -1.106049	 0.727351	 -4.007365
H	 -2.387433	 0.055431	 -3.025760
H	 -0.952757	 2.635118	 -0.724313
H	 -1.144966	 2.867538	 -2.457501
H	 -2.424666	 2.114287	 -1.534444

2 3 6 7 F

