%nprocshared=1
%mem=2GB
#HF/6-31G* nosymm scf=tight 

Mol

0 1
H	 -0.917138	 2.400915	 0.397436
C	 -0.791026	 1.349759	 0.228405
C	 -1.912681	 0.481890	 0.013423
C	 0.430418	 0.800945	 0.211278
H	 -2.906809	 0.892613	 0.021333
C	 -1.729951	 -0.829689	 -0.195942
H	 1.320731	 1.381064	 0.363624
N	 0.640212	 -0.532897	 -0.000111
H	 -2.544022	 -1.508409	 -0.360205
C	 -0.400707	 -1.426635	 -0.214577
C	 2.010177	 -1.032049	 0.000042
O	 -0.194345	 -2.600288	 -0.399402
H	 2.187698	 -1.635381	 -0.882279
H	 2.677579	 -0.189247	 -0.001871
H	 2.188882	 -1.632203	 0.884288
