%nprocshared=1
%mem=2GB
#HF/6-31G* nosymm scf=tight 

Mol

0 1
H	 -3.457960	 0.166880	 1.449720
O	 -3.367910	 -0.300316	 2.267454
C	 -3.043259	 -1.643282	 2.012310
C	 -1.609705	 -1.833855	 1.529264
H	 -3.184960	 -2.163733	 2.950780
H	 -3.740919	 -2.074362	 1.295219
C	 -0.744952	 -2.681434	 2.465576
H	 -1.635880	 -2.290619	 0.543339
H	 -1.158079	 -0.850240	 1.411352
C	 -0.457728	 -1.984074	 3.798246
H	 0.192678	 -2.917163	 1.969948
H	 -1.244549	 -3.630695	 2.659610
C	 -1.681840	 -1.352903	 4.471679
H	 0.002787	 -2.694704	 4.482188
H	 0.281966	 -1.204491	 3.628529
C	 -2.287630	 -0.162940	 3.722357
H	 -2.445919	 -2.119946	 4.579596
H	 -1.417609	 -1.046036	 5.482546
C	 -3.566301	 0.364981	 4.376374
H	 -2.505171	 -0.457600	 2.696705
H	 -1.565050	 0.647169	 3.659876
C	 -4.169530	 1.556892	 3.633995
H	 -4.300600	 -0.435952	 4.429290
H	 -3.353061	 0.650826	 5.404336
H	 -4.424183	 1.293665	 2.611211
H	 -5.074930	 1.906532	 4.120448
H	 -3.472367	 2.389287	 3.595958

14 10 7 4 F

14 10 13 16 F

10 7 4 8 F

10 13 16 20 F

20 16 19 22 F

4 3 2 1 F

