%nprocshared=1
%mem=2GB
#HF/6-31G* nosymm scf=tight 

Mol

0 1
H	 -2.798360	 -0.862255	 -0.071053
N	 -1.863561	 -0.715187	 0.256814
C	 -1.344686	 0.554728	 -0.219830
H	 -1.300452	 -1.461917	 -0.101532
C	 0.081427	 0.741154	 0.254071
H	 -1.362155	 0.656231	 -1.305829
H	 -1.952773	 1.354456	 0.191809
O	 0.828398	 -0.368359	 -0.155930
H	 0.502633	 1.652983	 -0.168767
H	 0.098173	 0.827501	 1.338275
C	 2.147450	 -0.368679	 0.288674
H	 2.620462	 -1.265285	 -0.088227
H	 2.692359	 0.498031	 -0.081286
H	 2.200699	 -0.371694	 1.375396

6 3 2 4 F

5 8 11 13 F

11 8 5 3 F

