%nprocshared=1
%mem=2GB
#HF/6-31G* nosymm scf=tight 

Mol

0 1
O	 1.645433	 0.951645	 -1.685405
C	 0.788116	 1.716284	 -1.379704
C	 -0.257713	 1.484214	 -0.316570
O	 0.640172	 2.906476	 -1.947763
C	 0.314749	 0.938564	 0.988114
H	 -0.772830	 2.427478	 -0.156504
H	 -1.000265	 0.809286	 -0.733472
C	 1.456808	 1.801553	 1.526640
H	 0.663224	 -0.076973	 0.828618
H	 -0.478044	 0.872809	 1.726670
C	 2.753146	 1.642206	 0.730414
H	 1.157333	 2.848560	 1.517307
H	 1.643639	 1.548495	 2.569203
C	 2.568536	 1.890959	 -0.766012
H	 3.148356	 0.640558	 0.884202
H	 3.501303	 2.328263	 1.121215
H	 1.850778	 1.196549	 -1.193601
H	 3.504464	 1.770833	 -1.302724
H	 2.206061	 2.897602	 -0.954673
C	 1.792514	 3.724689	 -2.034891
H	 2.180449	 3.940881	 -1.049855
H	 1.472688	 4.634305	 -2.518819
H	 2.560106	 3.239076	 -2.620117

15 11 8 12 F

9 5 8 12 F

1 2 3 6 F

9 5 3 6 F

