%nprocshared=1
%mem=2GB
#HF/6-31G* nosymm scf=tight 

Mol

0 1
H	 -2.828313	 -0.665273	 0.906338
C	 -2.764861	 -0.307269	 -0.119308
O	 -1.442712	 -0.153324	 -0.523736
H	 -3.223211	 -1.036092	 -0.773429
H	 -3.317973	 0.628177	 -0.193031
C	 -0.719715	 0.768384	 0.229244
C	 0.719720	 0.768376	 -0.229267
H	 -1.135920	 1.768729	 0.103628
H	 -0.758865	 0.519212	 1.287726
O	 1.392611	 -0.295398	 0.366430
H	 0.750534	 0.687200	 -1.313918
H	 1.185043	 1.714359	 0.050526
C	 2.706965	 -0.449871	 -0.062409
H	 2.756559	 -0.644779	 -1.131878
H	 3.305899	 0.433456	 0.155466
H	 3.125548	 -1.294566	 0.467107

7 10 13 14 F

2 3 6 7 F

