%nprocshared=1
%mem=2GB
#HF/6-31G* nosymm scf=tight 

Mol

0 1
O	 0.989123	 1.570845	 -0.217137
C	 0.788116	 1.716284	 -1.379704
C	 0.662733	 0.606629	 -2.394993
O	 0.640172	 2.906476	 -1.947763
C	 -0.248674	 -0.529781	 -1.941614
H	 0.306688	 1.051729	 -3.320106
H	 1.665550	 0.246200	 -2.607518
C	 -1.627476	 -0.030079	 -1.507720
H	 0.224814	 -1.063109	 -1.123348
H	 -0.353588	 -1.247834	 -2.748895
C	 -1.607078	 0.678861	 -0.152417
H	 -2.021892	 0.649818	 -2.261492
H	 -2.320776	 -0.868643	 -1.462684
C	 -0.592578	 1.820048	 -0.091316
H	 -1.384219	 -0.044988	 0.628298
H	 -2.599983	 1.065941	 0.065405
H	 0.415984	 1.458513	 -0.271064
H	 -0.602103	 2.302649	 0.881030
H	 -0.809206	 2.578101	 -0.838805
C	 1.792514	 3.724689	 -2.034891
H	 2.180449	 3.940881	 -1.049855
H	 1.472688	 4.634305	 -2.518819
H	 2.560106	 3.239076	 -2.620117

15 11 8 12 F

9 5 8 12 F

1 2 3 6 F

9 5 3 6 F

