%nprocshared=24
%mem=2GB
#HF/6-31G* nosymm scf=tight 

Mol

0 1
H	 -2.455504	 -1.062989	 3.255514
C	 -2.425350	 -0.963885	 2.187839
C	 -1.271134	 -0.975404	 1.562018
H	 -3.351856	 -0.856911	 1.655811
O	 -0.556103	 0.160447	 1.348864
H	 -0.815366	 -1.880054	 1.199970
C	 0.560655	 0.089671	 0.530517
C	 1.668801	 -0.719983	 1.165157
H	 0.955675	 1.069507	 0.286435
H	 0.268795	 -0.407366	 -0.382860
F	 1.165484	 -1.837754	 1.668212
F	 2.595986	 -1.057942	 0.284282
F	 2.262244	 -0.066192	 2.142282

11 8 7 9 F

3 5 7 9 F

6 3 5 7 F

