%nprocshared=1
%mem=2GB
#HF/6-31G* nosymm scf=tight opt=ModRedundant

Mol

0 1
O	 0.808000	 1.327000	 -0.000000
C	 0.635000	 0.151000	 0.000000
C	 -0.709000	 -0.538000	 -0.000000
O	 1.627000	 -0.730000	 0.000000
C	 -1.887000	 0.432000	 0.000000
H	 -0.739000	 -1.192000	 -0.867000
H	 -0.739000	 -1.193000	 0.866000
C	 -3.230000	 -0.298000	 -0.000000
H	 -1.817000	 1.080000	 -0.867000
H	 -1.818000	 1.079000	 0.868000
H	 -3.336000	 -0.930000	 -0.877000
H	 -4.053000	 0.408000	 -0.001000
H	 -3.337000	 -0.930000	 0.877000
C	 2.945000	 -0.213000	 -0.000000
H	 3.117000	 0.389000	 -0.880000
H	 3.599000	 -1.072000	 -0.001000
H	 3.118000	 0.388000	 0.881000
