%nprocshared=1
%mem=2GB
#HF/6-31G* nosymm scf=tight 

Mol

0 1
H	 -3.457960	 0.166880	 1.449720
O	 -3.367910	 -0.300316	 2.267454
C	 -3.043259	 -1.643282	 2.012310
C	 -1.609705	 -1.833855	 1.529264
H	 -3.184960	 -2.163733	 2.950780
H	 -3.740919	 -2.074362	 1.295219
C	 -1.314720	 -1.174099	 0.179978
H	 -0.935821	 -1.437562	 2.284379
H	 -1.414703	 -2.902721	 1.459510
C	 -0.777060	 0.252411	 0.324236
H	 -2.222258	 -1.161129	 -0.417159
H	 -0.588333	 -1.776013	 -0.366285
C	 0.338354	 0.418187	 1.362845
H	 -0.421894	 0.600733	 -0.643946
H	 -1.601897	 0.907154	 0.597469
C	 -0.094225	 0.194152	 2.814451
H	 1.133530	 -0.285527	 1.125573
H	 0.775219	 1.410938	 1.265723
C	 1.072389	 0.266195	 3.802003
H	 -0.575941	 -0.778907	 2.899400
H	 -0.841862	 0.930206	 3.100049
C	 0.642352	 0.049276	 5.252410
H	 1.818809	 -0.477804	 3.532166
H	 1.560974	 1.234190	 3.711696
H	 0.179015	 -0.924698	 5.382469
H	 1.491069	 0.104232	 5.927166
H	 -0.077394	 0.800707	 5.564951

14 10 7 4 F

14 10 13 16 F

8 4 3 2 F

10 13 16 20 F

20 16 19 22 F

4 3 2 1 F

