%nprocshared=1
%mem=2GB
#HF/6-31G* nosymm scf=tight 

Mol

0 1
H	 1.720920	 0.251717	 -3.081193
O	 2.221219	 0.540421	 -2.330159
C	 1.473261	 0.522005	 -1.208823
C	 2.085744	 0.923954	 -0.025926
C	 0.150149	 0.125165	 -1.203565
H	 3.115100	 1.227885	 -0.056100
C	 1.372775	 0.927041	 1.155061
H	 -0.346777	 -0.189306	 -2.100057
C	 -0.536158	 0.140425	 0.000000
H	 1.853478	 1.238864	 2.063657
C	 0.041863	 0.532662	 1.186419
N	 -1.935604	 -0.280333	 0.000000
H	 -0.524231	 0.529693	 2.094678
O	 -2.161694	 -1.452901	 0.000000
O	 -2.770341	 0.571417	 0.000000

4 3 2 1 F

