%nprocshared=1
%mem=2GB
#HF/6-31G* nosymm scf=tight 

Mol

0 1
H	 -3.489899	 1.228218	 -1.029938
O	 -3.452007	 0.283848	 -0.965577
C	 -3.181085	 -0.079926	 0.364119
C	 -1.765924	 0.277073	 0.805136
H	 -3.327791	 -1.152017	 0.410903
H	 -3.905698	 0.375695	 1.036898
C	 -1.713167	 1.415463	 1.824843
H	 -1.289297	 -0.611118	 1.220955
H	 -1.189218	 0.544457	 -0.078683
C	 -2.145029	 2.763114	 1.243026
H	 -0.705176	 1.493172	 2.220602
H	 -2.353747	 1.165016	 2.668839
C	 -3.452091	 2.675692	 0.450542
H	 -2.249021	 3.481009	 2.053108
H	 -1.358202	 3.146459	 0.594524
C	 -3.364680	 1.857400	 -0.842869
H	 -3.798227	 3.681073	 0.215822
H	 -4.215898	 2.233872	 1.087103
C	 -4.715582	 1.538511	 -1.486125
H	 -2.853733	 0.922671	 -0.624912
H	 -2.738587	 2.384369	 -1.560166
H	 -5.368094	 1.021962	 -0.787166
H	 -4.588004	 0.897324	 -2.352982
H	 -5.229433	 2.434586	 -1.818046

20 16 13 17 F

17 13 10 7 F

13 10 7 11 F

11 7 4 3 F

1 2 3 5 F

