%nprocshared=1
%mem=2GB
#HF/6-31G* nosymm scf=tight 

Mol

0 1
H	 1.850664	 -2.863657	 0.259101
C	 1.532974	 -1.936751	 -0.210106
C	 0.489404	 -1.234793	 0.653222
H	 1.116278	 -2.168072	 -1.184076
H	 2.417502	 -1.327731	 -0.362550
N	 -0.000257	 -0.000071	 0.054619
H	 -0.348682	 -1.908432	 0.780510
H	 0.889801	 -1.055745	 1.655375
C	 -1.363055	 0.315058	 0.462241
C	 0.913844	 1.116816	 0.253717
C	 -2.412078	 -0.285320	 -0.468531
H	 -1.482241	 1.391144	 0.451970
H	 -1.549931	 -0.001174	 1.492681
C	 0.825840	 2.158047	 -0.857739
H	 1.925242	 0.730955	 0.272154
H	 0.752030	 1.590809	 1.226308
H	 -2.262839	 0.075384	 -1.480151
H	 -2.369300	 -1.368867	 -0.491760
H	 -3.410332	 -0.003975	 -0.144961
H	 1.044939	 1.699939	 -1.815740
H	 -0.158596	 2.608970	 -0.921804
H	 1.541268	 2.957206	 -0.685013
