%nprocshared=1
%mem=2GB
#HF/6-31G* nosymm scf=tight 

Mol

0 1
O	 1.392387	 0.825407	 -1.883997
C	 0.788116	 1.716284	 -1.379704
C	 0.101165	 1.662292	 -0.036926
O	 0.640172	 2.906476	 -1.947763
C	 0.966892	 1.055359	 1.062979
H	 -0.201305	 2.675344	 0.213976
H	 -0.820985	 1.102273	 -0.166299
C	 2.328812	 1.742144	 1.175065
H	 1.102676	 -0.003703	 0.867683
H	 0.440758	 1.122288	 2.010086
C	 3.279047	 1.375148	 0.033914
H	 2.191255	 2.822307	 1.193030
H	 2.791790	 1.479207	 2.125011
C	 2.677028	 1.626695	 -1.347950
H	 3.557731	 0.327380	 0.121418
H	 4.199949	 1.944919	 0.136085
H	 1.772152	 1.043485	 -1.493822
H	 3.374175	 1.357283	 -2.135258
H	 2.419034	 2.673888	 -1.478863
C	 1.792514	 3.724689	 -2.034891
H	 2.180449	 3.940881	 -1.049855
H	 1.472688	 4.634305	 -2.518819
H	 2.560106	 3.239076	 -2.620117

15 11 8 12 F

9 5 8 12 F

1 2 3 6 F

9 5 3 6 F

