%nprocshared=1
%mem=2GB
#HF/6-31G* nosymm scf=tight 

Mol

0 1
O	 -0.488453	 0.057968	 1.132425
C	 -0.451170	 -1.129930	 1.097049
C	 0.801727	 -1.959116	 0.945507
O	 -1.528589	 -1.897310	 1.185968
C	 1.124911	 -2.785238	 2.184071
H	 1.613075	 -1.280220	 0.700432
H	 0.669725	 -2.590969	 0.072237
H	 1.272053	 -2.149836	 3.048928
H	 2.030738	 -3.360307	 2.024106
H	 0.320287	 -3.472711	 2.414906
C	 -1.371458	 -3.186911	 1.768754
C	 -0.545067	 -4.019747	 0.811794
H	 -2.348361	 -3.620190	 1.934627
H	 -0.886363	 -3.082864	 2.729716
H	 -1.041883	 -4.109907	 -0.147479
H	 -0.400480	 -5.015346	 1.218641
H	 0.428178	 -3.569752	 0.651936

2 4 11 13 F

4 2 3 6 F

