%nprocshared=1
%mem=2GB
#HF/6-31G* nosymm scf=tight 

Mol

0 1
H	 -3.489899	 1.228218	 -1.029938
O	 -3.452007	 0.283848	 -0.965577
C	 -3.181085	 -0.079926	 0.364119
C	 -1.765924	 0.277073	 0.805136
H	 -3.327791	 -1.152017	 0.410903
H	 -3.905698	 0.375695	 1.036898
C	 -1.108607	 -0.795496	 1.674646
H	 -1.154203	 0.459186	 -0.078942
H	 -1.804003	 1.220786	 1.346595
C	 -1.771095	 -0.946028	 3.045641
H	 -0.056748	 -0.557591	 1.799963
H	 -1.145304	 -1.748631	 1.149688
C	 -3.296864	 -1.039880	 2.960159
H	 -1.371393	 -1.830260	 3.536346
H	 -1.499243	 -0.098902	 3.674194
C	 -3.992549	 0.239588	 2.481475
H	 -3.694924	 -1.321417	 3.933802
H	 -3.558065	 -1.849008	 2.281262
C	 -5.472003	 0.066578	 2.132637
H	 -3.468636	 0.608122	 1.602847
H	 -3.888629	 1.011340	 3.241609
H	 -5.607866	 -0.708531	 1.383046
H	 -5.883928	 0.987867	 1.732161
H	 -6.065183	 -0.204176	 2.999813

20 16 13 17 F

17 13 10 7 F

13 10 7 11 F

11 7 4 3 F

1 2 3 5 F

