%nprocshared=8
%mem=2GB
#B3LYP/6-31G* nosymm scf=tight
# opt=ModRedundant  EmpiricalDispersion=GD3

Mol

1 1
C	 0.892877	 -0.422199	 -0.573970
C	 1.041356	 0.386758	 0.568224
C	 1.886095	 -0.021254	 1.595678
C	 2.589903	 -1.224642	 1.487334
C	 2.448034	 -2.028149	 0.351784
C	 1.599042	 -1.635277	 -0.678063
C	 -0.000000	 -0.000000	 -1.658508
H	 0.464191	 1.300861	 0.675615
H	 1.988105	 0.592916	 2.484454
H	 3.250733	 -1.537117	 2.290015
H	 3.006390	 -2.954574	 0.265123
H	 1.524882	 -2.241399	 -1.576592
N	 -0.712589	 -0.905950	 -2.322235
N	 -0.095426	 1.288023	 -1.976243
H	 -0.763439	 1.640073	 -2.651954
H	 0.560344	 1.952988	 -1.587564
H	 -1.377189	 -1.485970	 -1.827091
H	 -0.673431	 -1.006470	 -3.329771

1 7 13 17 F
