%nprocshared=1
%mem=2GB
#HF/6-31G* nosymm scf=tight 

Mol

0 1
H	 2.866480	 -0.465706	 0.876907
C	 2.405773	 -0.024801	 0.000000
N	 0.988830	 -0.304158	 0.000000
H	 2.866480	 -0.465706	 -0.876907
H	 2.629928	 1.045948	 0.000000
C	 0.534705	 -0.861365	 1.260658
C	 0.592334	 -1.153670	 -1.107740
H	 1.023532	 -1.816494	 1.478091
H	 0.783331	 -0.173442	 2.062651
C	 -0.970300	 -1.068994	 1.217762
H	 0.883158	 -0.679785	 -2.039996
H	 1.085361	 -2.130098	 -1.062892
C	 -0.914199	 -1.353547	 -1.087829
H	 -1.314182	 -1.566002	 2.115396
H	 -1.469635	 -0.104708	 1.141697
O	 -1.332699	 -1.883680	 0.138454
H	 -1.217616	 -2.055801	 -1.853202
H	 -1.410895	 -0.402649	 -1.272370
