%nprocshared=1
%mem=2GB
#HF/6-31G* nosymm scf=tight 

Mol

0 1
O	 -1.680636	 -1.847119	 1.387977
C	 -0.738141	 -1.528056	 0.737096
C	 0.554499	 -2.302105	 0.636119
O	 -0.698257	 -0.426125	 0.001050
C	 0.553330	 -3.578215	 1.468290
H	 1.357041	 -1.635067	 0.936507
H	 0.724207	 -2.515743	 -0.414987
H	 0.400302	 -3.358889	 2.517977
H	 1.501073	 -4.095132	 1.361537
H	 -0.238085	 -4.247726	 1.154059
C	 -1.853104	 0.406779	 0.000512
C	 -3.066105	 -0.499277	 -0.000959
H	 -1.828410	 1.043074	 -0.873618
H	 -1.829857	 1.042383	 0.875188
H	 -3.071820	 -1.133106	 -0.880383
H	 -3.972708	 0.097145	 -0.001528
H	 -3.073405	 -1.133813	 0.877999

4 2 3 6 F

11 4 2 3 F

