%nprocshared=1
%mem=2GB
#HF/6-31G* nosymm scf=tight 

Mol

0 1
O	 -0.806752	 -1.114546	 1.082146
C	 -0.561929	 -0.074560	 0.531515
C	 -1.597472	 1.034011	 0.503089
N	 0.623947	 0.147590	 -0.102813
H	 -1.868528	 1.298769	 -0.513038
H	 -2.472791	 0.671041	 1.019920
H	 -1.237628	 1.928840	 0.999450
C	 1.007799	 -0.735160	 -1.186919
C	 1.686792	 0.970327	 0.431706
H	 1.874008	 -0.326764	 -1.695753
H	 0.192501	 -0.822662	 -1.883751
H	 1.262928	 -1.726215	 -0.817947
H	 2.226134	 1.429275	 -0.388365
H	 1.301119	 1.763229	 1.052592
H	 2.396926	 0.387788	 1.015804

2 4 8 10 F

