%nprocshared=1
%mem=2GB
#HF/6-31G* nosymm scf=tight 

Mol

0 1
H	 7.229812	 -8.005699	 -1.691259
C	 7.019686	 -6.956451	 -1.874145
C	 7.645352	 -6.071836	 -0.796567
H	 7.409284	 -6.707508	 -2.856785
H	 5.940214	 -6.835747	 -1.905317
C	 7.362092	 -4.584782	 -1.020730
H	 8.717727	 -6.236698	 -0.775741
H	 7.262241	 -6.367944	 0.178747
C	 5.894988	 -4.275797	 -1.319734
H	 7.670142	 -4.020240	 -0.147781
H	 7.962920	 -4.230558	 -1.855339
C	 4.964761	 -4.436609	 -0.126394
H	 5.797236	 -3.243375	 -1.651878
H	 5.529466	 -4.885218	 -2.143248
C	 3.475324	 -4.538016	 -0.405696
O	 5.381478	 -4.464313	 0.992527
C	 3.142513	 -5.197708	 -1.752249
H	 3.077758	 -3.530724	 -0.373804
H	 3.010537	 -5.105855	 0.398180
C	 3.906992	 -6.506058	 -1.962969
H	 2.073565	 -5.394231	 -1.800676
H	 3.371148	 -4.517137	 -2.568350
C	 3.584233	 -7.172245	 -3.299729
H	 3.675183	 -7.191428	 -1.151430
H	 4.975620	 -6.311267	 -1.903941
H	 2.526789	 -7.408725	 -3.374670
H	 3.837980	 -6.523738	 -4.133494
H	 4.139105	 -8.097216	 -3.419829

10 6 3 2 F

12 15 17 21 F

