%nprocshared=1
%mem=2GB
#HF/6-31G* nosymm scf=tight 

Mol

0 1
H	 1.148083	 -1.049780	 0.784252
O	 1.319262	 -0.618148	 -0.041729
C	 0.709265	 0.639550	 -0.033818
C	 1.257274	 1.597727	 -1.058592
H	 0.861868	 1.043395	 0.960578
H	 -0.367780	 0.548145	 -0.170369
C	 2.321587	 1.386315	 -1.806461
H	 0.708813	 2.521876	 -1.156684
H	 2.902235	 0.485628	 -1.722558
H	 2.657217	 2.116333	 -2.520887

5 3 4 7 F

3 4 7 9 F

