%nprocshared=1
%mem=2GB
#HF/6-31G* nosymm scf=tight 

Mol

0 1
H	 -0.216825	 0.021369	 -3.357402
C	 0.374198	 0.036393	 -2.447010
C	 -0.521757	 -0.028637	 -1.217342
H	 0.969602	 0.942322	 -2.434777
H	 1.053364	 -0.811668	 -2.481329
N	 0.263400	 0.031178	 0.000000
H	 -1.199035	 0.820290	 -1.219355
H	 -1.147901	 -0.924895	 -1.265384
C	 -0.521757	 -0.028637	 1.217342
H	 0.935769	 -0.712709	 0.000000
C	 -2.006973	 -0.146470	 0.902226
H	 -0.201696	 -0.901917	 1.777994
H	 -0.350798	 0.836020	 1.866021
H	 -2.197304	 -1.024584	 0.295552
H	 -2.591100	 -0.220964	 1.814143
H	 -2.360805	 0.723396	 0.354697
