%nprocshared=1
%mem=2GB
#HF/6-31G* nosymm scf=tight 

Mol

0 1
H	 -2.258317	 -0.920211	 0.781428
O	 -2.347518	 -0.290803	 0.079804
C	 -1.184022	 0.487508	 -0.006784
C	 0.062599	 -0.378592	 0.031606
H	 -1.176523	 1.099369	 -0.904519
H	 -1.187323	 1.153111	 0.844927
O	 -0.043959	 -1.331029	 -0.978982
H	 0.152937	 -0.862108	 1.006301
H	 0.944499	 0.244194	 -0.106143
C	 -1.299166	 -1.399119	 -1.578116
H	 -1.567776	 -0.454564	 -2.047473
H	 -1.257677	 -2.168070	 -2.336993
H	 -2.070634	 -1.657210	 -0.855608

8 4 3 5 F

1 2 3 5 F

4 7 10 13 F

