%nprocshared=1
%mem=2GB
#HF/6-31G* nosymm scf=tight 

Mol

0 1
H	 -0.821032	 -1.655889	 0.000000
O	 -1.037828	 -0.728600	 0.000000
C	 0.100509	 -0.036935	 0.000000
C	 0.330689	 0.660831	 -1.309978
O	 0.821731	 0.000023	 0.942176
H	 0.361935	 -0.068672	 -2.110955
H	 1.260050	 1.208389	 -1.269754
H	 -0.492024	 1.336766	 -1.512392
