%nprocshared=1
%mem=2GB
#HF/6-31G* nosymm scf=tight 

Mol

0 1
O	 -0.682937	 1.318834	 -0.186099
C	 -0.860635	 0.152188	 -0.042321
C	 -2.173363	 -0.477127	 0.338347
O	 0.083258	 -0.765189	 -0.202595
H	 -2.477673	 -1.180929	 -0.427595
H	 -2.923125	 0.290956	 0.455536
H	 -2.058825	 -1.029004	 1.264191
C	 -0.194434	 -2.102549	 0.206246
C	 -0.357077	 -2.201780	 1.711685
H	 0.591879	 -2.752160	 -0.147107
H	 -1.114870	 -2.355132	 -0.300210
H	 -0.641928	 -3.213339	 1.984337
H	 0.570227	 -1.961939	 2.216612
H	 -1.131075	 -1.525031	 2.057158

10 8 4 2 F

