%nprocshared=1
%mem=2GB
#HF/6-31G* nosymm scf=tight 

Mol

0 1
H	 -0.216825	 0.021369	 -3.357402
C	 0.374198	 0.036393	 -2.447010
C	 -0.521757	 -0.028637	 -1.217342
H	 0.969602	 0.942322	 -2.434777
H	 1.053364	 -0.811668	 -2.481329
N	 0.263400	 0.031178	 0.000000
H	 -1.199035	 0.820290	 -1.219355
H	 -1.147901	 -0.924895	 -1.265384
C	 -0.521757	 -0.028637	 1.217342
H	 0.935769	 -0.712709	 0.000000
C	 -1.903475	 0.575165	 1.004438
H	 -0.623830	 -1.072945	 1.497324
H	 -0.027528	 0.470455	 2.056560
H	 -2.422624	 0.060921	 0.203563
H	 -2.500536	 0.502958	 1.908125
H	 -1.833948	 1.626978	 0.738905
