%nprocshared=1
%mem=2GB
#HF/6-31G* nosymm scf=tight 

Mol

0 1
H	 -0.952388	 2.304287	 0.777482
C	 -0.811296	 1.294193	 0.447015
C	 -1.913918	 0.478500	 0.027021
C	 0.411683	 0.749587	 0.413218
H	 -2.908760	 0.887263	 0.042724
C	 -1.712634	 -0.782218	 -0.382292
H	 1.288510	 1.292735	 0.710826
N	 0.640212	 -0.532897	 -0.000111
H	 -2.512162	 -1.421071	 -0.703191
C	 -0.381721	 -1.374590	 -0.419018
C	 2.010177	 -1.032049	 0.000042
O	 -0.158983	 -2.503351	 -0.780254
H	 2.187698	 -1.635381	 -0.882279
H	 2.677579	 -0.189247	 -0.001871
H	 2.188882	 -1.632203	 0.884288
