%nprocshared=8
%mem=2GB
#B3LYP/6-31G* nosymm scf=tight
# opt=ModRedundant  EmpiricalDispersion=GD3

Mol

1 1
C	 0.537966	 -0.320330	 -0.331977
C	 0.588261	 0.673109	 0.663821
C	 1.095272	 0.362034	 1.921554
C	 1.560439	 -0.929158	 2.189266
C	 1.516079	 -1.916953	 1.200571
C	 1.002601	 -1.620383	 -0.058043
C	 -0.000000	 -0.000000	 -1.658508
H	 0.188758	 1.665347	 0.473823
H	 1.118514	 1.122261	 2.695536
H	 1.958595	 -1.166238	 3.171049
H	 1.890712	 -2.914093	 1.407680
H	 1.009676	 -2.378950	 -0.835709
N	 -0.712589	 -0.905950	 -2.322235
N	 0.225754	 1.195835	 -2.195236
H	 -0.199183	 1.498148	 -3.064030
H	 0.897174	 1.821000	 -1.769035
H	 -1.377189	 -1.485970	 -1.827091
H	 -0.673431	 -1.006470	 -3.329771

1 7 13 17 F
