%nprocshared=1
%mem=2GB
#HF/6-31G* nosymm scf=tight 

Mol

0 1
H	 -2.577606	 0.247184	 1.509904
O	 -1.840915	 -0.185680	 1.103718
C	 -2.061112	 -1.573124	 1.079922
C	 -1.149974	 -2.342752	 2.029778
H	 -3.094213	 -1.712195	 1.371533
H	 -1.956878	 -1.958163	 0.066187
C	 -1.075607	 -1.748950	 3.438585
H	 -1.498734	 -3.370707	 2.084941
H	 -0.152020	 -2.369178	 1.595317
C	 -0.365312	 -0.392783	 3.471937
H	 -0.558680	 -2.445455	 4.092827
H	 -2.083871	 -1.633922	 3.836723
C	 -0.819577	 0.598703	 2.394469
H	 -0.498627	 0.057096	 4.454120
H	 0.703800	 -0.559170	 3.357855
C	 -0.467702	 0.196955	 0.959456
H	 -1.899190	 0.712147	 2.467834
H	 -0.397990	 1.579752	 2.608114
C	 1.036244	 0.238784	 0.680472
H	 -0.979537	 0.861519	 0.264841
H	 -0.835811	 -0.804552	 0.750217
C	 1.863357	 -0.468760	 1.753286
H	 1.235587	 -0.216656	 -0.287167
H	 1.358835	 1.274920	 0.601451
H	 1.586824	 -1.516241	 1.834146
H	 2.924041	 -0.423568	 1.526258
H	 1.714405	 -0.012667	 2.728045

14 10 7 4 F

14 10 13 16 F

10 7 4 8 F

8 4 3 2 F

10 13 16 20 F

20 16 19 22 F

