%nprocshared=1
%mem=2GB
#HF/6-31G* nosymm scf=tight 

Mol

0 1
H	 -0.216825	 0.021369	 -3.357402
C	 0.374198	 0.036393	 -2.447010
C	 -0.521757	 -0.028637	 -1.217342
H	 0.969602	 0.942322	 -2.434777
H	 1.053364	 -0.811668	 -2.481329
N	 0.263400	 0.031178	 0.000000
H	 -1.199035	 0.820290	 -1.219355
H	 -1.147901	 -0.924895	 -1.265384
C	 -0.521757	 -0.028637	 1.217342
H	 0.935769	 -0.712709	 0.000000
C	 -0.514776	 1.313729	 1.936406
H	 -1.540864	 -0.286267	 0.944512
H	 -0.175489	 -0.812422	 1.898094
H	 -0.897069	 2.093460	 1.287380
H	 -1.127046	 1.275941	 2.831975
H	 0.492293	 1.590863	 2.237502
