%nprocshared=1
%mem=2GB
#HF/6-31G* nosymm scf=tight 

Mol

0 1
O	 -0.016691	 1.241749	 -0.644707
C	 0.788116	 1.716284	 -1.379704
C	 2.087323	 1.070118	 -1.794910
O	 0.640172	 2.906476	 -1.947763
C	 1.932161	 -0.388655	 -2.213896
H	 2.504926	 1.668719	 -2.599895
H	 2.779632	 1.169437	 -0.963307
C	 0.863389	 -0.572239	 -3.292360
H	 1.683671	 -0.986429	 -1.342628
H	 2.886486	 -0.761079	 -2.572883
C	 -0.560916	 -0.432029	 -2.752401
H	 1.018642	 0.156792	 -4.086341
H	 0.976524	 -1.552203	 -3.753610
C	 -0.789319	 0.881740	 -2.006012
H	 -0.777540	 -1.266702	 -2.089427
H	 -1.266525	 -0.506686	 -3.576828
H	 -0.121074	 0.970315	 -1.154063
H	 -1.807452	 0.951533	 -1.635898
H	 -0.613480	 1.736436	 -2.653226
C	 1.792514	 3.724689	 -2.034891
H	 2.180449	 3.940881	 -1.049855
H	 1.472688	 4.634305	 -2.518819
H	 2.560106	 3.239076	 -2.620117

15 11 8 12 F

9 5 8 12 F

1 2 3 6 F

9 5 3 6 F

