%nprocshared=1
%mem=2GB
#HF/6-31G* nosymm scf=tight 

Mol

0 1
H	 2.962496	 -0.577202	 1.744492
O	 2.045245	 -0.795659	 1.831300
C	 1.301594	 -0.136111	 0.916767
C	 1.860868	 0.737131	 -0.007334
C	 -0.064799	 -0.356056	 0.921907
H	 2.924453	 0.906888	 -0.009632
C	 1.054245	 1.389249	 -0.924815
H	 -0.498074	 -1.030309	 1.635161
C	 -0.865228	 0.300799	 0.000000
H	 1.498493	 2.062700	 -1.635086
C	 -0.312282	 1.175399	 -0.926875
C	 -2.333960	 0.069074	 0.000000
H	 -0.940700	 1.680872	 -1.638629
O	 -2.847347	 -1.003763	 0.000000
H	 -2.943845	 0.977528	 0.000000

4 3 2 1 F

