%nprocshared=1
%mem=2GB
#HF/6-31G* nosymm scf=tight 

Mol

0 1
H	 7.316488	 -7.610941	 -2.296800
C	 7.071399	 -6.553372	 -2.296266
C	 7.684779	 -5.844836	 -1.089237
H	 7.438984	 -6.128212	 -3.225493
H	 5.988374	 -6.464736	 -2.296845
C	 7.352462	 -4.351469	 -1.054090
H	 8.761929	 -5.975436	 -1.106318
H	 7.325032	 -6.314988	 -0.175327
C	 5.872366	 -4.044605	 -1.283039
H	 7.655380	 -3.933816	 -0.100439
H	 7.930019	 -3.840847	 -1.821381
C	 4.964761	 -4.436609	 -0.126394
H	 5.737969	 -2.974517	 -1.433436
H	 5.514107	 -4.516759	 -2.195123
C	 3.475324	 -4.538016	 -0.405696
O	 5.398131	 -4.640508	 0.967690
C	 3.142513	 -5.197708	 -1.752249
H	 3.077758	 -3.530724	 -0.373804
H	 3.010537	 -5.105855	 0.398180
C	 3.906992	 -6.506058	 -1.962969
H	 2.073565	 -5.394231	 -1.800676
H	 3.371148	 -4.517137	 -2.568350
C	 3.584233	 -7.172245	 -3.299729
H	 3.675183	 -7.191428	 -1.151430
H	 4.975620	 -6.311267	 -1.903941
H	 2.526789	 -7.408725	 -3.374670
H	 3.837980	 -6.523738	 -4.133494
H	 4.139105	 -8.097216	 -3.419829

10 6 3 2 F

12 15 17 21 F

