%nprocshared=1
%mem=2GB
#HF/6-31G* nosymm scf=tight 

Mol

0 1
H	 -2.457809	 0.501296	 1.083509
C	 -1.464069	 0.070408	 1.121459
C	 -0.603454	 0.661669	 0.000000
H	 -1.552883	 -1.004126	 1.016909
H	 -1.035453	 0.283988	 2.093114
C	 0.763625	 0.112519	 0.000000
H	 -1.043655	 0.458321	 -0.969248
H	 -0.529504	 1.738272	 0.100137
N	 1.813038	 -0.320305	 0.000000
