%nprocshared=1
%mem=2GB
#HF/6-31G* nosymm scf=tight 

Mol

0 1
H	 -3.489899	 1.228218	 -1.029938
O	 -3.452007	 0.283848	 -0.965577
C	 -3.181085	 -0.079926	 0.364119
C	 -1.765924	 0.277073	 0.805136
H	 -3.327791	 -1.152017	 0.410903
H	 -3.905698	 0.375695	 1.036898
C	 -1.689583	 0.816496	 2.234022
H	 -1.131907	 -0.605039	 0.710993
H	 -1.366067	 1.012947	 0.109561
C	 -2.358141	 2.183196	 2.396313
H	 -0.648702	 0.879421	 2.536211
H	 -2.160179	 0.102437	 2.907856
C	 -3.752138	 2.240341	 1.765763
H	 -2.419150	 2.423518	 3.455058
H	 -1.729443	 2.949781	 1.944992
C	 -3.769776	 2.129375	 0.236864
H	 -4.243906	 3.165073	 2.063638
H	 -4.353317	 1.432118	 2.177072
C	 -5.157224	 1.908846	 -0.368744
H	 -3.126982	 1.302610	 -0.055653
H	 -3.325947	 3.024773	 -0.193811
H	 -5.630990	 1.026302	 0.052920
H	 -5.090616	 1.765450	 -1.442912
H	 -5.815844	 2.753202	 -0.194252

20 16 13 17 F

17 13 10 7 F

13 10 7 11 F

11 7 4 3 F

1 2 3 5 F

