%nprocshared=1
%mem=2GB
#HF/6-31G* nosymm scf=tight opt=ModRedundant

Mol

0 1
H	 -0.134000	 -2.128000	 -0.000000
C	 0.420000	 -1.212000	 -0.000000
C	 1.803000	 -1.204000	 -0.000000
C	 -0.247000	 -0.000000	 -0.000000
H	 2.340000	 -2.134000	 -0.000000
C	 2.492000	 -0.000000	 -0.000000
N	 -1.706000	 -0.000000	 -0.000000
C	 0.420000	 1.212000	 0.000000
H	 3.567000	 0.000000	 -0.000000
C	 1.803000	 1.204000	 0.000000
O	 -2.261000	 1.057000	 -0.000000
O	 -2.261000	 -1.057000	 0.000000
H	 -0.134000	 2.128000	 0.000000
H	 2.340000	 2.134000	 0.000000
