%nprocshared=1
%mem=2GB
#HF/6-31G* nosymm scf=tight 

Mol

0 1
O	 -2.821601	 1.309235	 -0.001213
C	 -2.668563	 0.129746	 -0.000350
C	 -3.801572	 -0.864014	 -0.000442
O	 -1.481751	 -0.454642	 0.000584
H	 -4.417280	 -0.689587	 -0.874708
H	 -3.443784	 -1.883046	 -0.000565
H	 -4.417179	 -0.689832	 0.873954
C	 -0.334255	 0.388708	 0.000906
C	 0.891947	 -0.504646	 0.000751
H	 -0.365390	 1.025305	 -0.873475
H	 -0.365484	 1.024911	 0.875569
C	 2.133726	 0.221715	 0.521189
H	 1.066076	 -0.861744	 -1.010486
H	 0.688984	 -1.379668	 0.611983
C	 3.382087	 -0.662519	 0.528411
H	 2.322775	 1.102582	 -0.089891
H	 1.946616	 0.584790	 1.530271
C	 4.622639	 0.063423	 1.046972
H	 3.570731	 -1.025919	 -0.479274
H	 3.195726	 -1.542123	 1.140486
H	 4.854861	 0.929874	 0.434313
H	 5.490437	 -0.588582	 1.039899
H	 4.477176	 0.409484	 2.066331

2 4 8 10 F

16 12 9 13 F

19 15 12 16 F

1 2 4 8 F

