%nprocshared=1
%mem=2GB
#HF/6-31G* nosymm scf=tight 

Mol

0 1
H	 -1.836216	 1.387520	 -0.000064
C	 -1.301823	 0.443321	 -0.000031
O	 -0.003969	 0.658512	 0.000451
O	 -1.829879	 -0.616434	 -0.000857
C	 0.539226	 1.390376	 1.098859
C	 0.043682	 2.815716	 0.984136
H	 1.618278	 1.335354	 1.054837
H	 0.217634	 0.925941	 2.020908
H	 0.368417	 3.262140	 0.051245
H	 0.435830	 3.408761	 1.803741
H	 -1.039007	 2.850915	 1.021973

7 5 3 2 F

