%nprocshared=1
%mem=2GB
#HF/6-31G* nosymm scf=tight 

Mol

0 1
H	 -0.314752	 3.001425	 -0.790005
C	 0.411227	 2.338203	 -0.303388
C	 0.065331	 0.871482	 -0.349150
O	 1.385684	 2.789984	 0.204596
C	 -1.330473	 0.616870	 -0.935992
H	 0.153743	 0.467848	 0.652937
H	 0.811892	 0.383764	 -0.974401
C	 -1.606170	 -0.860021	 -1.220963
H	 -1.426843	 1.186852	 -1.854601
H	 -2.084975	 1.007354	 -0.256367
H	 -0.883979	 -1.261018	 -1.925355
H	 -2.595761	 -0.993046	 -1.645616
H	 -1.551361	 -1.461445	 -0.318369

6 3 5 9 F

