%nprocshared=1
%mem=2GB
#HF/6-31G* nosymm scf=tight 

Mol

0 1
O	 -2.042549	 -1.228399	 -0.269030
C	 -1.653912	 -0.146171	 0.050137
C	 -0.332303	 0.024011	 0.778412
C	 -2.438579	 1.106236	 -0.272369
C	 -0.030082	 -1.197630	 1.660528
H	 0.476529	 0.177378	 0.069432
H	 -0.410614	 0.909434	 1.399554
C	 -0.990452	 -1.321203	 2.844357
H	 0.991431	 -1.139411	 2.032288
H	 -0.087042	 -2.090993	 1.045874
C	 -2.454804	 -1.164670	 2.436463
H	 -0.849727	 -2.286973	 3.324887
H	 -0.739588	 -0.568944	 3.588496
H	 -2.745650	 -1.925065	 1.717254
H	 -2.633125	 -0.194541	 1.982046
H	 -3.112005	 -1.253752	 3.295635
H	 -3.277823	 0.863061	 -0.908988
H	 -1.806773	 1.843019	 -0.759671
H	 -2.802853	 1.554979	 0.648059

11 8 5 9 F

9 5 3 2 F

