%nprocshared=1
%mem=2GB
#HF/6-31G* nosymm scf=tight 

Mol

0 1
H	 -3.205930	 0.047080	 -0.279154
C	 -2.902992	 1.055738	 -0.552977
O	 -1.542796	 1.118908	 -0.837958
H	 -3.437211	 1.351567	 -1.445298
H	 -3.174091	 1.729681	 0.258648
C	 -0.719715	 0.768384	 0.229244
C	 0.719720	 0.768376	 -0.229267
H	 -0.835651	 1.481611	 1.046289
H	 -0.975613	 -0.219342	 0.607287
O	 1.392611	 -0.295398	 0.366430
H	 0.750534	 0.687200	 -1.313918
H	 1.185043	 1.714359	 0.050526
C	 2.706965	 -0.449871	 -0.062409
H	 2.756559	 -0.644779	 -1.131878
H	 3.305899	 0.433456	 0.155466
H	 3.125548	 -1.294566	 0.467107

7 10 13 14 F

2 3 6 7 F

