%nprocshared=1
%mem=2GB
#HF/6-31G* nosymm scf=tight 

Mol

0 1
O	 1.239552	 0.775400	 -1.948967
C	 0.788116	 1.716284	 -1.379704
C	 0.317634	 1.732720	 0.054257
O	 0.640172	 2.906476	 -1.947763
C	 1.298273	 1.076803	 1.021606
H	 0.132720	 2.769096	 0.323413
H	 -0.651699	 1.242560	 0.083541
C	 2.707302	 1.659762	 0.903886
H	 1.324351	 0.007949	 0.834364
H	 0.933092	 1.196251	 2.036831
C	 3.438013	 1.206347	 -0.361157
H	 2.653268	 2.747390	 0.915741
H	 3.292819	 1.375339	 1.776901
C	 2.647133	 1.484118	 -1.638891
H	 3.649917	 0.141739	 -0.291544
H	 4.402570	 1.705957	 -0.417358
H	 1.690545	 0.969302	 -1.627995
H	 3.191021	 1.151979	 -2.517708
H	 2.448775	 2.545996	 -1.754566
C	 1.792514	 3.724689	 -2.034891
H	 2.180449	 3.940881	 -1.049855
H	 1.472688	 4.634305	 -2.518819
H	 2.560106	 3.239076	 -2.620117

15 11 8 12 F

9 5 8 12 F

1 2 3 6 F

9 5 3 6 F

