%nprocshared=1
%mem=2GB
#HF/6-31G* nosymm scf=tight 

Mol

0 1
H	 6.734096	 -8.398393	 1.094828
C	 6.666087	 -7.687719	 0.277003
C	 7.403487	 -6.391152	 0.609162
H	 7.086150	 -8.159088	 -0.606569
H	 5.612422	 -7.503803	 0.085261
C	 7.321487	 -5.363256	 -0.521555
H	 8.444231	 -6.614762	 0.820001
H	 6.983561	 -5.961269	 1.517211
C	 5.908996	 -5.164630	 -1.071723
H	 7.701527	 -4.409113	 -0.173958
H	 7.964839	 -5.681860	 -1.338642
C	 4.964761	 -4.436609	 -0.126394
H	 5.950217	 -4.572942	 -1.984945
H	 5.465971	 -6.115982	 -1.357790
C	 3.475324	 -4.538016	 -0.405696
O	 5.373235	 -3.792192	 0.792454
C	 3.142513	 -5.197708	 -1.752249
H	 3.077758	 -3.530724	 -0.373804
H	 3.010537	 -5.105855	 0.398180
C	 3.906992	 -6.506058	 -1.962969
H	 2.073565	 -5.394231	 -1.800676
H	 3.371148	 -4.517137	 -2.568350
C	 3.584233	 -7.172245	 -3.299729
H	 3.675183	 -7.191428	 -1.151430
H	 4.975620	 -6.311267	 -1.903941
H	 2.526789	 -7.408725	 -3.374670
H	 3.837980	 -6.523738	 -4.133494
H	 4.139105	 -8.097216	 -3.419829

10 6 3 2 F

12 15 17 21 F

