%nprocshared=1
%mem=2GB
#HF/6-31G* nosymm scf=tight 
prop=(read,field)

Mol

0 1
H	 -2.098831	 -0.674419	 -0.616642
O	 -2.035718	 -0.060207	 0.102730
C	 -0.954989	 0.788087	 -0.092523
C	 0.353834	 0.040217	 -0.004802
H	 -0.984891	 1.290277	 -1.054176
H	 -0.974303	 1.533095	 0.688640
F	 0.394630	 -0.937570	 -0.903045
F	 1.368770	 0.853281	 -0.249813
F	 0.546339	 -0.502703	 1.179989

@grid.dat /N
