%nprocshared=1
%mem=2GB
#HF/6-31G* nosymm scf=tight 

Mol

0 1
H	 7.437305	 -5.195667	 -3.818010
C	 7.085645	 -4.417479	 -3.147725
C	 7.723363	 -4.549470	 -1.765310
H	 7.327107	 -3.459179	 -3.597945
H	 6.003150	 -4.493737	 -3.091260
C	 7.243364	 -3.470355	 -0.792210
H	 8.802851	 -4.495106	 -1.862012
H	 7.492994	 -5.531626	 -1.355441
C	 5.725463	 -3.288931	 -0.774013
H	 7.581763	 -3.707940	 0.210129
H	 7.697906	 -2.520074	 -1.063133
C	 4.964761	 -4.436609	 -0.126394
H	 5.469369	 -2.391653	 -0.212696
H	 5.341364	 -3.126626	 -1.778653
C	 3.475324	 -4.538016	 -0.405696
O	 5.508348	 -5.221681	 0.590948
C	 3.142513	 -5.197708	 -1.752249
H	 3.077758	 -3.530724	 -0.373804
H	 3.010537	 -5.105855	 0.398180
C	 3.906992	 -6.506058	 -1.962969
H	 2.073565	 -5.394231	 -1.800676
H	 3.371148	 -4.517137	 -2.568350
C	 3.584233	 -7.172245	 -3.299729
H	 3.675183	 -7.191428	 -1.151430
H	 4.975620	 -6.311267	 -1.903941
H	 2.526789	 -7.408725	 -3.374670
H	 3.837980	 -6.523738	 -4.133494
H	 4.139105	 -8.097216	 -3.419829

10 6 3 2 F

12 15 17 21 F

