%nprocshared=1
%mem=2GB
#HF/6-31G* nosymm scf=tight 

Mol

0 1
H	 -2.646374	 -0.642757	 1.268656
C	 -2.083525	 -0.384536	 0.393091
O	 -0.807605	 -0.127164	 0.768327
F	 -2.118945	 -1.383102	 -0.486752
F	 -2.621877	 0.670592	 -0.209486
C	 -0.163208	 0.941706	 0.172543
C	 -1.083153	 2.147993	 0.309405
Cl	 0.173767	 0.604499	 -1.533316
H	 0.772478	 1.173887	 0.650410
F	 -2.155358	 1.995422	 -0.438417
F	 -0.441517	 3.220616	 -0.109190
F	 -1.458064	 2.346085	 1.549637

10 7 6 9 F

9 6 3 2 F

