%nprocshared=1
%mem=2GB
#HF/6-31G* nosymm scf=tight 

Mol

0 1
H	 -2.798360	 -0.862255	 -0.071053
N	 -1.863561	 -0.715187	 0.256814
C	 -1.344686	 0.554728	 -0.219830
H	 -1.300452	 -1.461917	 -0.101532
C	 -1.667440	 1.650837	 0.773906
H	 -0.267346	 0.552233	 -0.391099
H	 -1.824045	 0.792806	 -1.164455
O	 -3.056985	 1.806347	 0.819378
H	 -1.287667	 1.388049	 1.761000
H	 -1.193956	 2.578908	 0.461285
C	 -3.492012	 2.846462	 1.635763
H	 -4.572448	 2.867808	 1.592182
H	 -3.185041	 2.696268	 2.669296
H	 -3.106121	 3.805735	 1.297098

8 5 3 6 F

5 8 11 13 F

11 8 5 3 F

