%nprocshared=1
%mem=2GB
#HF/6-31G* nosymm scf=tight 

Mol

0 1
H	 -4.119911	 6.119950	 -0.280531
C	 -4.430148	 5.070999	 -0.196405
C	 -4.888743	 4.650230	 1.176641
O	 -4.388983	 4.358034	 -1.146003
C	 -4.276698	 3.313373	 1.617627
H	 -4.653856	 5.445607	 1.874433
H	 -5.972816	 4.551509	 1.135470
C	 -4.775769	 2.115974	 0.804937
H	 -3.196618	 3.384015	 1.529761
H	 -4.484345	 3.152074	 2.674331
C	 -6.253274	 1.803461	 1.050150
H	 -4.174248	 1.243330	 1.050929
H	 -4.619524	 2.299386	 -0.256424
C	 -7.144331	 3.045428	 0.963640
H	 -6.580357	 1.059632	 0.328022
H	 -6.367079	 1.347562	 2.032793
C	 -8.476090	 2.930578	 1.714174
H	 -7.340708	 3.275648	 -0.082366
H	 -6.595566	 3.895780	 1.362978
C	 -9.441535	 1.892099	 1.140506
H	 -8.962502	 3.902772	 1.700334
H	 -8.281521	 2.704290	 2.760528
H	 -9.641833	 2.084110	 0.089658
H	 -9.050397	 0.883621	 1.223924
H	 -10.390864	 1.916855	 1.666962

6 3 5 8 F

6 3 2 4 F

3 5 8 12 F

12 8 11 14 F

20 17 14 18 F

