%nprocshared=1
%mem=2GB
#HF/6-31G* nosymm scf=tight 

Mol

0 1
H	 -3.161837	 0.500524	 -0.000234
C	 -2.367097	 -0.232926	 -0.000000
O	 -1.158440	 0.455814	 -0.000122
H	 -2.468853	 -0.861886	 -0.882833
H	 -2.468942	 -0.861421	 0.883154
C	 -1.058687	 1.440634	 0.983775
C	 0.407303	 1.778102	 1.192709
H	 -1.502292	 1.086813	 1.915399
H	 -1.612735	 2.330436	 0.681795
C	 1.160548	 0.675852	 1.936044
H	 0.861679	 1.954069	 0.222534
H	 0.470631	 2.712203	 1.742386
H	 1.130014	 -0.262888	 1.389914
H	 2.203181	 0.943021	 2.071628
H	 0.735715	 0.500086	 2.920436

6 3 2 4 F

11 7 6 8 F

