%nprocshared=1
%mem=2GB
#HF/6-31G* nosymm scf=tight 

Mol

0 1
H	 3.028703	 0.613319	 1.509608
C	 2.326329	 0.025615	 0.925219
C	 0.994570	 0.759117	 0.800665
H	 2.181142	 -0.929153	 1.418273
H	 2.782965	 -0.164273	 -0.040161
N	 -0.000257	 -0.000071	 0.054619
H	 0.613076	 0.933487	 1.798881
H	 1.150013	 1.747434	 0.358223
C	 -1.363055	 0.315058	 0.462241
C	 0.187994	 0.099660	 -1.386655
C	 -2.412078	 -0.285320	 -0.468531
H	 -1.482241	 1.391144	 0.451970
H	 -1.549931	 -0.001174	 1.492681
C	 -0.316596	 -1.130108	 -2.135188
H	 1.247145	 0.202283	 -1.586206
H	 -0.284774	 1.002216	 -1.784990
H	 -2.262839	 0.075384	 -1.480151
H	 -2.369300	 -1.368867	 -0.491760
H	 -3.410332	 -0.003975	 -0.144961
H	 0.195527	 -2.017893	 -1.781348
H	 -1.381824	 -1.284702	 -2.001243
H	 -0.132387	 -1.026382	 -3.200849
