%nprocshared=1
%mem=2GB
#HF/6-31G* nosymm scf=tight 

Mol

0 1
H	 -0.367348	 2.047014	 -0.308205
C	 0.352277	 1.337084	 0.083769
N	 -0.000016	 0.000074	 -0.335546
H	 1.328359	 1.600444	 -0.307950
H	 0.381933	 1.450534	 1.172486
C	 1.163201	 -0.845786	 -0.475967
C	 -0.996844	 -0.591549	 0.527283
H	 0.868173	 -1.816076	 -0.859173
H	 1.855913	 -0.404092	 -1.183441
H	 1.695796	 -1.001592	 0.467935
H	 -1.880886	 0.035532	 0.552078
H	 -1.287230	 -1.562508	 0.142117
H	 -0.647444	 -0.725506	 1.556313
