%nprocshared=1
%mem=2GB
#HF/6-31G* nosymm scf=tight 

Mol

0 1
H	 -0.367348	 2.047014	 -0.308205
C	 0.352277	 1.337084	 0.083769
N	 -0.000016	 0.000074	 -0.335546
H	 1.328359	 1.600444	 -0.307950
H	 0.381933	 1.450534	 1.172486
C	 1.124629	 -0.697731	 -0.915642
C	 -0.612863	 -0.756913	 0.731949
H	 0.806525	 -1.667161	 -1.282201
H	 1.513284	 -0.134138	 -1.756341
H	 1.943130	 -0.855503	 -0.205679
H	 -1.492518	 -0.236712	 1.093851
H	 -0.927159	 -1.726352	 0.362024
H	 0.058269	 -0.919423	 1.581714
