%nprocshared=1
%mem=2GB
#HF/6-31G* nosymm scf=tight 

Mol

0 1
H	 -0.727879	 0.069849	 1.999832
C	 -0.414394	 -0.484033	 1.138537
C	 -0.411660	 -1.867295	 1.131025
C	 0.000000	 0.183220	 0.000000
H	 -0.729835	 -2.404452	 2.005206
C	 0.000000	 -2.555744	 0.000000
N	 0.000000	 1.642018	 0.000000
C	 0.414394	 -0.484034	 -1.138537
H	 0.000000	 -3.630640	 0.000000
C	 0.411660	 -1.867295	 -1.131025
O	 1.057097	 2.196749	 0.000000
O	 -1.057097	 2.196749	 0.000000
H	 0.727879	 0.069849	 -1.999832
H	 0.729835	 -2.404452	 -2.005206
