%nprocshared=1
%mem=2GB
#HF/6-31G* nosymm scf=tight 

Mol

0 1
H	 -3.408315	 -1.030961	 0.139285
O	 -3.119657	 -0.141268	 -0.011510
C	 -1.777545	 -0.059395	 -0.001477
C	 -0.968376	 -1.172140	 0.208392
C	 -1.212713	 1.192493	 -0.210777
H	 -1.414216	 -2.138822	 0.369833
C	 0.403175	 -1.028375	 0.208105
H	 -1.857870	 2.035453	 -0.370347
C	 0.160646	 1.320219	 -0.208218
H	 1.039518	 -1.878295	 0.368736
C	 0.984182	 0.218375	 0.000000
H	 0.598863	 2.290134	 -0.370364
C	 2.452467	 0.370529	 0.000000
O	 3.228994	 -0.533774	 0.000000
H	 2.809473	 1.405765	 0.000000

5 3 2 1 F

