%nprocshared=1
%mem=2GB
#HF/6-31G* nosymm scf=tight 

Mol

0 1
H	 -0.369554	 0.069849	 2.095845
C	 -0.210393	 -0.484033	 1.193199
C	 -0.209005	 -1.867295	 1.185326
C	 0.000000	 0.183220	 0.000000
H	 -0.370547	 -2.404452	 2.101477
C	 0.000000	 -2.555744	 0.000000
N	 0.000000	 1.642018	 0.000000
C	 0.210393	 -0.484034	 -1.193199
H	 0.000000	 -3.630640	 0.000000
C	 0.209005	 -1.867295	 -1.185326
O	 1.057097	 2.196749	 0.000000
O	 -1.057097	 2.196749	 0.000000
H	 0.369554	 0.069849	 -2.095845
H	 0.370547	 -2.404452	 -2.101477
