%nprocshared=1
%mem=2GB
#HF/6-31G* nosymm scf=tight 

Mol

0 1
H	 2.591676	 2.013956	 0.335017
O	 3.341076	 1.666752	 -0.126416
C	 3.569581	 0.339145	 0.272707
C	 2.539767	 -0.640285	 -0.279495
H	 4.553106	 0.084646	 -0.100901
H	 3.608576	 0.269204	 1.359154
C	 1.115811	 -0.397273	 0.226630
H	 2.556196	 -0.582511	 -1.364741
H	 2.852081	 -1.648031	 -0.010655
C	 0.115918	 -1.429151	 -0.302766
H	 0.797950	 0.599468	 -0.066350
H	 1.109961	 -0.420744	 1.316472
C	 -0.877474	 -1.956592	 0.739021
H	 -0.433370	 -0.999373	 -1.138481
H	 0.670920	 -2.272967	 -0.707301
C	 -1.871364	 -0.917691	 1.265657
H	 -1.436753	 -2.776620	 0.293402
H	 -0.327415	 -2.385865	 1.575081
C	 -2.907024	 -1.514263	 2.221139
H	 -2.385039	 -0.453763	 0.424812
H	 -1.341092	 -0.118198	 1.777443
C	 -3.896421	 -0.478141	 2.753311
H	 -3.452802	 -2.305607	 1.711838
H	 -2.395254	 -1.986760	 3.057036
H	 -4.448074	 -0.010313	 1.942731
H	 -4.618152	 -0.931814	 3.425562
H	 -3.384492	 0.308652	 3.300348

14 10 13 16 F

10 7 4 8 F

8 4 3 2 F

10 13 16 20 F

20 16 19 22 F

4 3 2 1 F

