%nprocshared=1
%mem=2GB
#HF/6-31G* nosymm scf=tight 

Mol

0 1
H	 -0.216825	 0.021369	 -3.357402
C	 0.374198	 0.036393	 -2.447010
C	 -0.521757	 -0.028637	 -1.217342
H	 0.969602	 0.942322	 -2.434777
H	 1.053364	 -0.811668	 -2.481329
N	 0.263400	 0.031178	 0.000000
H	 -1.199035	 0.820290	 -1.219355
H	 -1.147901	 -0.924895	 -1.265384
C	 -0.521757	 -0.028637	 1.217342
H	 0.935769	 -0.712709	 0.000000
C	 -1.896905	 -0.625607	 0.949675
H	 0.010987	 -0.654321	 1.927335
H	 -0.632172	 0.952084	 1.690244
H	 -1.802934	 -1.616872	 0.520809
H	 -2.472719	 -0.697148	 1.867099
H	 -2.461550	 -0.010472	 0.253660
