%nprocshared=1
%mem=2GB
#HF/6-31G* nosymm scf=tight 

Mol

0 1
H	 -2.124948	 1.329935	 1.369971
C	 -1.119550	 0.928070	 1.417954
C	 -0.603454	 0.661669	 0.000000
H	 -1.143574	 0.014827	 2.000065
H	 -0.489344	 1.643497	 1.932198
C	 0.763625	 0.112519	 0.000000
H	 -1.245119	 -0.043215	 -0.515726
H	 -0.595035	 1.575135	 -0.583163
N	 1.813038	 -0.320305	 0.000000
