%nprocshared=1
%mem=2GB
#HF/6-31G* nosymm scf=tight 

Mol

0 1
O	 -2.042549	 -1.228399	 -0.269030
C	 -1.653912	 -0.146171	 0.050137
C	 -0.332303	 0.024011	 0.778412
C	 -2.438579	 1.106236	 -0.272369
C	 0.789465	 -0.750578	 0.068821
H	 -0.068450	 1.075605	 0.848514
H	 -0.458948	 -0.361130	 1.784170
C	 0.608964	 -2.266372	 0.162743
H	 1.752673	 -0.477192	 0.496106
H	 0.814017	 -0.446961	 -0.973463
C	 -0.808889	 -2.715717	 -0.187952
H	 1.318550	 -2.756808	 -0.500120
H	 0.853672	 -2.593976	 1.170394
H	 -1.071027	 -2.431976	 -1.203249
H	 -1.538353	 -2.266488	 0.479520
H	 -0.908307	 -3.793702	 -0.109911
H	 -3.277823	 0.863061	 -0.908988
H	 -1.806773	 1.843019	 -0.759671
H	 -2.802853	 1.554979	 0.648059

11 8 5 9 F

9 5 3 2 F

