%nprocshared=1
%mem=2GB
#HF/6-31G* nosymm scf=tight 

Mol

0 1
H	 5.937914	 -1.035903	 2.667500
C	 5.850277	 -2.116126	 2.604572
C	 6.944849	 -2.708377	 1.717822
H	 5.910238	 -2.512177	 3.613973
H	 4.861559	 -2.345815	 2.216655
C	 6.846217	 -4.231085	 1.601863
H	 7.916277	 -2.438300	 2.119056
H	 6.880709	 -2.267085	 0.724424
C	 5.437034	 -4.734664	 1.289008
H	 7.524611	 -4.581925	 0.832229
H	 7.169676	 -4.680362	 2.538113
C	 4.964761	 -4.436609	 -0.126394
H	 5.398813	 -5.816505	 1.407036
H	 4.715390	 -4.336034	 1.998587
C	 3.475324	 -4.538016	 -0.405696
O	 5.732877	 -4.150907	 -0.995173
C	 3.142513	 -5.197708	 -1.752249
H	 3.077758	 -3.530724	 -0.373804
H	 3.010537	 -5.105855	 0.398180
C	 3.906992	 -6.506058	 -1.962969
H	 2.073565	 -5.394231	 -1.800676
H	 3.371148	 -4.517137	 -2.568350
C	 3.584233	 -7.172245	 -3.299729
H	 3.675183	 -7.191428	 -1.151430
H	 4.975620	 -6.311267	 -1.903941
H	 2.526789	 -7.408725	 -3.374670
H	 3.837980	 -6.523738	 -4.133494
H	 4.139105	 -8.097216	 -3.419829

10 6 3 2 F

12 15 17 21 F

