%nprocshared=8
%mem=2GB
#B3LYP/6-31G* nosymm scf=tight
# opt=ModRedundant  EmpiricalDispersion=GD3

Mol

1 1
C	 1.414097	 0.205268	 -1.990018
C	 2.340000	 0.491797	 -0.969397
C	 3.680724	 0.680881	 -1.289442
C	 4.101769	 0.595406	 -2.620096
C	 3.183471	 0.315515	 -3.636764
C	 1.841742	 0.115217	 -3.327955
C	 -0.000000	 -0.000000	 -1.658508
H	 2.025065	 0.516794	 0.070040
H	 4.398546	 0.884588	 -0.501553
H	 5.148361	 0.747328	 -2.865451
H	 3.511504	 0.263624	 -4.669835
H	 1.125136	 -0.059516	 -4.125566
N	 -0.712589	 -0.905950	 -2.322235
N	 -0.567109	 0.720192	 -0.694779
H	 -1.510946	 0.553290	 -0.366020
H	 -0.077368	 1.514715	 -0.304687
H	 -1.377189	 -1.485970	 -1.827091
H	 -0.673431	 -1.006470	 -3.329771

1 7 13 17 F
