%nprocshared=1
%mem=2GB
#HF/6-31G* nosymm scf=tight 

Mol

0 1
H	 1.451294	 -0.352755	 -3.017262
C	 1.439099	 -0.067485	 -1.969069
C	 0.085952	 -0.394519	 -1.345242
H	 1.634356	 0.996794	 -1.898724
H	 2.254455	 -0.588643	 -1.479045
N	 -0.000257	 -0.000071	 0.054619
H	 -0.676251	 0.139931	 -1.898222
H	 -0.138043	 -1.457974	 -1.470045
C	 -1.363055	 0.315058	 0.462241
C	 0.640422	 -0.959294	 0.944608
C	 -2.412078	 -0.285320	 -0.468531
H	 -1.482241	 1.391144	 0.451970
H	 -1.549931	 -0.001174	 1.492681
C	 1.174479	 -0.316337	 2.220786
H	 1.475173	 -1.406769	 0.420099
H	 -0.037577	 -1.781067	 1.193194
H	 -2.262839	 0.075384	 -1.480151
H	 -2.369300	 -1.368867	 -0.491760
H	 -3.410332	 -0.003975	 -0.144961
H	 1.891921	 0.458747	 1.975520
H	 0.386903	 0.134962	 2.814591
H	 1.667186	 -1.059625	 2.841343
