%nprocshared=1
%mem=2GB
#HF/6-31G* nosymm scf=tight 

Mol

0 1
H	 4.693216	 -5.535368	 2.367108
C	 4.049404	 -4.727639	 2.067333
C	 2.789322	 -4.601765	 2.632574
C	 4.482138	 -3.816029	 1.117259
H	 2.454948	 -5.309443	 3.369291
C	 1.962078	 -3.562926	 2.246615
H	 5.459247	 -3.915207	 0.680194
C	 3.655765	 -2.775342	 0.729376
H	 0.983904	 -3.449967	 2.673333
C	 2.392300	 -2.646434	 1.294002
H	 3.986541	 -2.067610	 -0.005487
C	 1.463013	 -1.545621	 0.912827
O	 1.970282	 -0.730723	 0.000018
O	 0.374341	 -1.403691	 1.374897
C	 3.377318	 -0.566646	 -0.000065
H	 3.695437	 -0.028981	 -0.881264
H	 3.789299	 -1.563704	 0.000236
H	 3.695516	 -0.028316	 0.880770

12 13 15 16 F

13 12 10 6 F

