%nprocshared=1
%mem=2GB
#HF/6-31G* nosymm scf=tight 

Mol

0 1
O	 1.066834	 -2.032293	 1.712165
C	 0.275803	 -1.645901	 0.914452
C	 -1.147444	 -2.120194	 0.804999
O	 0.550821	 -0.724572	 0.000672
H	 -1.823175	 -1.281819	 0.928282
H	 -1.339790	 -2.865528	 1.562212
H	 -1.318951	 -2.538157	 -0.180127
C	 -0.355137	 0.358436	 -0.111636
H	 0.050626	 1.127730	 -0.752651
H	 -0.487544	 0.737053	 0.889796
H	 -1.300119	 0.022424	 -0.513443

2 4 8 9 F

