%nprocshared=1
%mem=2GB
#HF/6-31G* nosymm scf=tight 

Mol

0 1
H	 -0.216825	 0.021369	 -3.357402
C	 0.374198	 0.036393	 -2.447010
C	 -0.521757	 -0.028637	 -1.217342
H	 0.969602	 0.942322	 -2.434777
H	 1.053364	 -0.811668	 -2.481329
N	 0.263400	 0.031178	 0.000000
H	 -1.199035	 0.820290	 -1.219355
H	 -1.147901	 -0.924895	 -1.265384
C	 -0.521757	 -0.028637	 1.217342
H	 0.935769	 -0.712709	 0.000000
C	 0.373595	 0.044258	 2.447008
H	 -1.202982	 0.817128	 1.216654
H	 -1.143732	 -0.927654	 1.267938
H	 0.964776	 0.952910	 2.432185
H	 -0.217566	 0.029216	 3.357310
H	 1.056695	 -0.800523	 2.484025
