%nprocshared=1
%mem=2GB
#HF/6-31G* nosymm scf=tight 

Mol

0 1
H	 7.124827	 -8.288573	 -1.028699
C	 6.950992	 -7.279871	 -1.390395
C	 7.595882	 -6.244288	 -0.470145
H	 7.357262	 -7.214266	 -2.395374
H	 5.876399	 -7.132910	 -1.457116
C	 7.363737	 -4.809177	 -0.948034
H	 8.662020	 -6.436284	 -0.406209
H	 7.194607	 -6.357795	 0.535732
C	 5.910309	 -4.510449	 -1.316238
H	 7.682468	 -4.113885	 -0.179514
H	 7.983270	 -4.621183	 -1.822036
C	 4.964761	 -4.436609	 -0.126394
H	 5.849551	 -3.547241	 -1.820530
H	 5.532224	 -5.239735	 -2.029238
C	 3.475324	 -4.538016	 -0.405696
O	 5.370416	 -4.286035	 0.986789
C	 3.142513	 -5.197708	 -1.752249
H	 3.077758	 -3.530724	 -0.373804
H	 3.010537	 -5.105855	 0.398180
C	 3.906992	 -6.506058	 -1.962969
H	 2.073565	 -5.394231	 -1.800676
H	 3.371148	 -4.517137	 -2.568350
C	 3.584233	 -7.172245	 -3.299729
H	 3.675183	 -7.191428	 -1.151430
H	 4.975620	 -6.311267	 -1.903941
H	 2.526789	 -7.408725	 -3.374670
H	 3.837980	 -6.523738	 -4.133494
H	 4.139105	 -8.097216	 -3.419829

10 6 3 2 F

12 15 17 21 F

