%nprocshared=1
%mem=2GB
#HF/6-31G* nosymm scf=tight 

Mol

0 1
H	 -0.699899	 1.973949	 -0.911572
C	 0.026033	 1.187518	 -1.123315
N	 0.538815	 0.649616	 0.000000
O	 0.306106	 0.869765	 -2.241260
C	 1.521968	 -0.411503	 0.000000
H	 0.219614	 1.006187	 0.871351
H	 2.150599	 -0.357004	 -0.881901
H	 0.999455	 -1.354525	 0.000000
H	 2.150599	 -0.357004	 0.881901

1 2 3 6 F

