%nprocshared=1
%mem=2GB
#HF/6-31G* nosymm scf=tight 

Mol

0 1
H	 -2.273092	 1.173159	 0.000295
O	 -1.438904	 1.618192	 0.000114
C	 -0.409536	 0.736003	 0.000030
C	 0.856394	 1.257762	 -0.215349
C	 -0.597661	 -0.629174	 0.204589
H	 0.956751	 2.316248	 -0.368729
C	 1.954476	 0.418991	 -0.229087
C	 0.524220	 -1.448936	 0.185583
C	 -1.979709	 -1.196514	 0.439269
H	 2.933974	 0.830064	 -0.396712
C	 1.793940	 -0.942563	 -0.028155
H	 0.395691	 -2.505990	 0.341988
H	 -2.644144	 -1.010143	 -0.402000
H	 -1.934355	 -2.269217	 0.577933
H	 -2.445537	 -0.777909	 1.329084
H	 2.643510	 -1.600851	 -0.037537
