%nprocshared=1
%mem=2GB
#HF/6-31G* nosymm scf=tight 

Mol

0 1
H	 -2.646374	 -0.642757	 1.268656
C	 -2.083525	 -0.384536	 0.393091
O	 -0.807605	 -0.127164	 0.768327
F	 -2.118945	 -1.383102	 -0.486752
F	 -2.621877	 0.670592	 -0.209486
C	 -0.025451	 0.631654	 -0.083212
C	 -0.818573	 1.889572	 -0.412999
Cl	 0.357653	 -0.269192	 -1.559329
H	 0.904837	 0.927250	 0.369514
F	 -1.862756	 1.592597	 -1.157061
F	 -0.047492	 2.709801	 -1.098635
F	 -1.231106	 2.511096	 0.664729

10 7 6 9 F

9 6 3 2 F

