%nprocshared=1
%mem=2GB
#HF/6-31G* nosymm scf=tight 

Mol

0 1
H	 4.259337	 -1.813183	 5.448927
C	 3.702595	 -1.752405	 4.530707
C	 2.544131	 -2.498437	 4.374036
C	 4.145577	 -0.928571	 3.507967
H	 2.201681	 -3.136962	 5.168001
C	 1.828810	 -2.419763	 3.193100
H	 5.043816	 -0.351008	 3.631225
C	 3.431150	 -0.848231	 2.324957
H	 0.930239	 -2.989828	 3.054293
C	 2.269703	 -1.594664	 2.164827
H	 3.770278	 -0.212019	 1.530887
C	 1.463013	 -1.545621	 0.912827
O	 1.970282	 -0.730723	 0.000018
O	 0.463713	 -2.170447	 0.740051
C	 3.377318	 -0.566646	 -0.000065
H	 3.695437	 -0.028981	 -0.881264
H	 3.789299	 -1.563704	 0.000236
H	 3.695516	 -0.028316	 0.880770

12 13 15 16 F

13 12 10 6 F

