%nprocshared=1
%mem=2GB
#HF/6-31G* nosymm scf=tight 

Mol

0 1
H	 2.591676	 2.013956	 0.335017
O	 3.341076	 1.666752	 -0.126416
C	 3.569581	 0.339145	 0.272707
C	 2.539767	 -0.640285	 -0.279495
H	 4.553106	 0.084646	 -0.100901
H	 3.608576	 0.269204	 1.359154
C	 1.115811	 -0.397273	 0.226630
H	 2.556196	 -0.582511	 -1.364741
H	 2.852081	 -1.648031	 -0.010655
C	 0.115918	 -1.429151	 -0.302766
H	 0.797950	 0.599468	 -0.066350
H	 1.109961	 -0.420744	 1.316472
C	 0.106105	 -1.593200	 -1.827014
H	 0.316493	 -2.392988	 0.161600
H	 -0.882493	 -1.140212	 0.018776
C	 1.387825	 -2.185086	 -2.419757
H	 -0.729351	 -2.236172	 -2.096118
H	 -0.093992	 -0.628581	 -2.291026
C	 1.290767	 -2.427431	 -3.927499
H	 1.613643	 -3.125762	 -1.919513
H	 2.230036	 -1.525892	 -2.223676
C	 2.571104	 -3.012242	 -4.522811
H	 0.459133	 -3.098486	 -4.131355
H	 1.055577	 -1.490437	 -4.428111
H	 2.815843	 -3.966707	 -4.065292
H	 2.470177	 -3.174278	 -5.591545
H	 3.415672	 -2.346610	 -4.367880

14 10 13 16 F

10 7 4 8 F

8 4 3 2 F

10 13 16 20 F

20 16 19 22 F

4 3 2 1 F

