%nprocshared=1
%mem=2GB
#HF/6-31G* nosymm scf=tight 

Mol

0 1
H	 1.148083	 -1.049780	 0.784252
O	 1.319262	 -0.618148	 -0.041729
C	 0.709265	 0.639550	 -0.033818
C	 1.211378	 1.562231	 1.045590
H	 -0.350965	 0.460545	 0.104287
H	 0.818574	 1.128764	 -1.001158
C	 2.025513	 1.218627	 2.023283
H	 0.850527	 2.577163	 0.980913
H	 2.389901	 0.212914	 2.129072
H	 2.345016	 1.931683	 2.761826

5 3 4 7 F

3 4 7 9 F

