%nprocshared=1
%mem=2GB
#HF/6-31G* nosymm scf=tight 

Mol

0 1
H	 2.729985	 -1.065784	 1.809007
C	 2.087315	 -1.019773	 0.934310
C	 0.916658	 -0.074186	 1.184401
H	 1.721127	 -2.018105	 0.722170
H	 2.698756	 -0.704279	 0.095776
N	 -0.000257	 -0.000071	 0.054619
H	 0.369530	 -0.438084	 2.044986
H	 1.287112	 0.918169	 1.457683
C	 -1.363055	 0.315058	 0.462241
C	 0.484328	 0.880818	 -0.999833
C	 -2.412078	 -0.285320	 -0.468531
H	 -1.482241	 1.391144	 0.451970
H	 -1.549931	 -0.001174	 1.492681
C	 -0.018550	 0.479388	 -2.383022
H	 1.566050	 0.837100	 -1.010790
H	 0.224755	 1.923354	 -0.793612
H	 -2.262839	 0.075384	 -1.480151
H	 -2.369300	 -1.368867	 -0.491760
H	 -3.410332	 -0.003975	 -0.144961
H	 0.290094	 -0.534489	 -2.611991
H	 -1.099919	 0.522622	 -2.455980
H	 0.387421	 1.143780	 -3.140714
