%nprocshared=1
%mem=2GB
#HF/6-31G* nosymm scf=tight 

Mol

0 1
O	 -0.488453	 0.057968	 1.132425
C	 -0.451170	 -1.129930	 1.097049
C	 0.801727	 -1.959116	 0.945507
O	 -1.528589	 -1.897310	 1.185968
C	 1.124911	 -2.785238	 2.184071
H	 1.613075	 -1.280220	 0.700432
H	 0.669725	 -2.590969	 0.072237
H	 1.272053	 -2.149836	 3.048928
H	 2.030738	 -3.360307	 2.024106
H	 0.320287	 -3.472711	 2.414906
C	 -1.589555	 -2.823071	 2.266084
C	 -0.541368	 -3.885794	 2.012638
H	 -2.584012	 -3.245540	 2.312553
H	 -1.408591	 -2.295971	 3.192911
H	 -0.733610	 -4.400698	 1.078253
H	 -0.553433	 -4.615533	 2.815747
H	 0.448306	 -3.446040	 1.963471

2 4 11 13 F

4 2 3 6 F

