%nprocshared=1
%mem=2GB
#HF/6-31G* nosymm scf=tight 

Mol

0 1
H	 5.810842	 -2.756817	 3.969960
C	 5.809882	 -3.671038	 3.384536
C	 6.897074	 -3.640701	 2.311097
H	 5.960565	 -4.501512	 4.067873
H	 4.823017	 -3.780104	 2.942947
C	 6.918928	 -4.913580	 1.461912
H	 7.864146	 -3.504883	 2.784307
H	 6.739392	 -2.779261	 1.663988
C	 5.540854	 -5.339039	 0.954799
H	 7.578735	 -4.773183	 0.613039
H	 7.331975	 -5.727893	 2.052952
C	 4.964761	 -4.436609	 -0.126394
H	 5.599605	 -6.338115	 0.525655
H	 4.830588	 -5.413028	 1.775302
C	 3.475324	 -4.538016	 -0.405696
O	 5.655180	 -3.687081	 -0.749239
C	 3.142513	 -5.197708	 -1.752249
H	 3.077758	 -3.530724	 -0.373804
H	 3.010537	 -5.105855	 0.398180
C	 3.906992	 -6.506058	 -1.962969
H	 2.073565	 -5.394231	 -1.800676
H	 3.371148	 -4.517137	 -2.568350
C	 3.584233	 -7.172245	 -3.299729
H	 3.675183	 -7.191428	 -1.151430
H	 4.975620	 -6.311267	 -1.903941
H	 2.526789	 -7.408725	 -3.374670
H	 3.837980	 -6.523738	 -4.133494
H	 4.139105	 -8.097216	 -3.419829

10 6 3 2 F

12 15 17 21 F

