%nprocshared=1
%mem=2GB
#HF/6-31G* nosymm scf=tight 

Mol

0 1
H	 -1.872268	 1.958970	 1.159943
C	 -0.858019	 1.579137	 1.200570
C	 -0.603454	 0.661669	 0.000000
H	 -0.730787	 1.042439	 2.132884
H	 -0.176856	 2.421420	 1.196530
C	 0.763625	 0.112519	 0.000000
H	 -1.296629	 -0.171444	 0.000000
H	 -0.746208	 1.198799	 -0.930421
N	 1.813038	 -0.320305	 0.000000
