%nprocshared=1
%mem=2GB
#HF/6-31G* nosymm scf=tight 

Mol

0 1
H	 -0.944757	 -0.000069	 1.678017
O	 -0.042387	 -0.000390	 1.388199
C	 -0.001487	 0.000018	 -0.026623
C	 -1.405770	 0.251167	 -0.579393
C	 0.974385	 1.074393	 -0.510395
C	 0.490659	 -1.390647	 -0.411673
H	 -1.416584	 0.216056	 -1.664081
H	 -1.770557	 1.230157	 -0.277047
H	 -2.096278	 -0.495424	 -0.202805
H	 1.058973	 1.074285	 -1.592492
H	 0.641727	 2.063922	 -0.205266
H	 1.958356	 0.905549	 -0.087111
H	 0.557381	 -1.494849	 -1.489836
H	 -0.187810	 -2.146437	 -0.032266
H	 1.470638	 -1.572546	 0.014880
