%nprocshared=1
%mem=2GB
#HF/6-31G* nosymm scf=tight 

Mol

0 1
O	 -0.488453	 0.057968	 1.132425
C	 -0.451170	 -1.129930	 1.097049
C	 0.801727	 -1.959116	 0.945507
O	 -1.528589	 -1.897310	 1.185968
C	 1.124911	 -2.785238	 2.184071
H	 1.613075	 -1.280220	 0.700432
H	 0.669725	 -2.590969	 0.072237
H	 1.272053	 -2.149836	 3.048928
H	 2.030738	 -3.360307	 2.024106
H	 0.320287	 -3.472711	 2.414906
C	 -2.700016	 -1.323021	 1.756363
C	 -2.425370	 -1.099731	 3.228445
H	 -3.532980	 -1.995426	 1.602652
H	 -2.922590	 -0.395876	 1.246017
H	 -2.198861	 -2.036875	 3.724039
H	 -3.296486	 -0.661252	 3.704410
H	 -1.585172	 -0.428524	 3.365568

2 4 11 13 F

4 2 3 6 F

