%nprocshared=1
%mem=2GB
#HF/6-31G* nosymm scf=tight 

Mol

0 1
O	 -0.806752	 -1.114546	 1.082146
C	 -0.561929	 -0.074560	 0.531515
C	 -1.597472	 1.034011	 0.503089
N	 0.623947	 0.147590	 -0.102813
H	 -1.868528	 1.298769	 -0.513038
H	 -2.472791	 0.671041	 1.019920
H	 -1.237628	 1.928840	 0.999450
C	 1.234425	 1.458160	 0.004887
C	 1.152834	 -0.697683	 -1.150686
H	 2.240691	 1.422052	 -0.397781
H	 1.273991	 1.751272	 1.039518
H	 0.669754	 2.203879	 -0.550515
H	 2.235391	 -0.678164	 -1.109111
H	 0.840330	 -1.722686	 -1.029667
H	 0.849022	 -0.357739	 -2.139093

2 4 8 10 F

