%nprocshared=1
%mem=2GB
#HF/6-31G* nosymm scf=tight 

Mol

0 1
H	 0.262299	 1.943835	 0.629132
C	 0.134848	 0.933374	 1.003386
N	 -0.528168	 0.128977	 -0.000000
H	 -0.481386	 0.986381	 1.893601
H	 1.120854	 0.558295	 1.290395
C	 0.248044	 -0.037491	 -1.209632
H	 -0.756206	 -0.767367	 0.381567
H	 0.998722	 0.743888	 -1.266824
H	 -0.398417	 0.061950	 -2.074060
H	 0.763621	 -0.999315	 -1.275517
