%nprocshared=1
%mem=2GB
#HF/6-31G* nosymm scf=tight 

Mol

0 1
O	 -2.324811	 1.361668	 -0.277141
C	 -2.105949	 0.203097	 -0.092081
C	 -0.889235	 -0.467034	 -0.705952
C	 -3.002726	 -0.644460	 0.782455
C	 -0.360270	 0.344647	 -1.899480
H	 -1.191885	 -1.452142	 -1.043988
H	 -0.105456	 -0.589972	 0.036075
C	 0.847873	 -0.320785	 -2.562961
H	 -1.168860	 0.464818	 -2.611608
H	 -0.081814	 1.343943	 -1.568396
C	 1.459092	 0.482481	 -3.716751
H	 0.560028	 -1.306297	 -2.924400
H	 1.615721	 -0.484484	 -1.809661
C	 0.550125	 0.630391	 -4.938184
H	 2.379986	 -0.006914	 -4.023570
H	 1.745704	 1.468353	 -3.356198
H	 0.239669	 -0.340969	 -5.313419
H	 1.067745	 1.144221	 -5.742204
H	 -0.345524	 1.199442	 -4.712832
H	 -3.496582	 -1.399307	 0.176174
H	 -3.747939	 -0.023774	 1.260148
H	 -2.421318	 -1.168775	 1.535358

6 3 5 8 F

3 5 8 12 F

12 8 11 15 F

