%nprocshared=1
%mem=2GB
#HF/6-31G* nosymm scf=tight 

Mol

0 1
H	 -2.331533	 -1.286034	 0.879870
C	 -2.996402	 -0.419869	 0.986319
C	 -4.257816	 -0.479772	 0.162998
O	 -2.699933	 0.475312	 1.709165
C	 -4.541722	 0.835644	 -0.575469
H	 -4.178229	 -1.313754	 -0.524642
H	 -5.077732	 -0.689585	 0.848835
C	 -4.902224	 1.994114	 0.357958
H	 -3.663252	 1.100411	 -1.156393
H	 -5.344439	 0.680208	 -1.294665
C	 -6.253274	 1.803461	 1.050150
H	 -4.913957	 2.920472	 -0.212630
H	 -4.126985	 2.115332	 1.112180
C	 -7.144331	 3.045428	 0.963640
H	 -6.759475	 0.950440	 0.605350
H	 -6.089580	 1.551128	 2.097010
C	 -8.476090	 2.930578	 1.714174
H	 -7.340708	 3.275648	 -0.082366
H	 -6.595566	 3.895780	 1.362978
C	 -9.441535	 1.892099	 1.140506
H	 -8.962502	 3.902772	 1.700334
H	 -8.281521	 2.704290	 2.760528
H	 -9.641833	 2.084110	 0.089658
H	 -9.050397	 0.883621	 1.223924
H	 -10.390864	 1.916855	 1.666962

6 3 5 8 F

6 3 2 4 F

3 5 8 12 F

8 11 14 18 F

20 17 14 18 F

