%nprocshared=1
%mem=2GB
#HF/6-31G* nosymm scf=tight 

Mol

0 1
O	 1.213679	 1.183435	 -1.267060
C	 0.140502	 1.681556	 -1.381988
C	 -1.161862	 1.079249	 -0.914051
O	 -0.054281	 2.863688	 -1.952602
C	 -1.097432	 0.523317	 0.505150
H	 -1.924958	 1.847880	 -1.001487
H	 -1.437298	 0.307080	 -1.627245
C	 -0.582038	 1.554280	 1.510561
H	 -0.458545	 -0.354277	 0.517613
H	 -2.084414	 0.181841	 0.801401
C	 0.921396	 1.797897	 1.386702
H	 -1.112035	 2.494362	 1.371188
H	 -0.811196	 1.222434	 2.521222
H	 1.178455	 2.163658	 0.396857
H	 1.260886	 2.532616	 2.110035
H	 1.481455	 0.882796	 1.555716
C	 1.065166	 3.726192	 -2.042424
H	 1.444631	 3.960080	 -1.058153
H	 0.709774	 4.621320	 -2.528624
H	 1.850932	 3.269393	 -2.626729

9 5 8 12 F

1 2 3 6 F

9 5 3 6 F

