%nprocshared=1
%mem=2GB
#HF/6-31G* nosymm scf=tight 

Mol

0 1
H	 -2.495541	 -0.149184	 1.951023
C	 -2.411466	 -0.652940	 0.990137
O	 -1.126839	 -0.541782	 0.467914
H	 -2.617709	 -1.705434	 1.127476
H	 -3.156256	 -0.234056	 0.314673
C	 -0.719715	 0.768384	 0.229244
C	 0.719720	 0.768376	 -0.229267
H	 -1.341832	 1.222938	 -0.542797
H	 -0.808983	 1.371713	 1.130371
O	 1.392611	 -0.295398	 0.366430
H	 0.750534	 0.687200	 -1.313918
H	 1.185043	 1.714359	 0.050526
C	 2.706965	 -0.449871	 -0.062409
H	 2.756559	 -0.644779	 -1.131878
H	 3.305899	 0.433456	 0.155466
H	 3.125548	 -1.294566	 0.467107

7 10 13 14 F

2 3 6 7 F

