%nprocshared=1
%mem=2GB
#HF/6-31G* nosymm scf=tight 

Mol

0 1
H	 2.379470	 3.118164	 0.000000
O	 1.433208	 3.083591	 0.000000
C	 0.995201	 1.805882	 0.000000
C	 1.863319	 0.721596	 0.000000
C	 -0.372909	 1.596824	 0.000000
H	 2.927672	 0.886484	 -0.000000
C	 1.363327	 -0.569790	 0.000000
H	 -1.044560	 2.433460	 0.000000
C	 -0.865228	 0.300799	 0.000000
H	 2.044955	 -1.400911	 -0.000000
C	 -0.002512	 -0.788004	 0.000000
C	 -2.333960	 0.069074	 0.000000
H	 -0.393055	 -1.790242	 -0.000000
O	 -2.847347	 -1.003763	 0.000000
H	 -2.943845	 0.977528	 0.000000

4 3 2 1 F

