%nprocshared=1
%mem=2GB
#HF/6-31G* nosymm scf=tight 

Mol

0 1
H	 -2.153054	 -2.250733	 0.000000
O	 -2.462445	 -1.355403	 0.000000
C	 -1.434260	 -0.483044	 0.000000
C	 -0.674277	 -0.392626	 -1.161447
C	 -1.122975	 0.302916	 1.093289
H	 -0.934812	 -1.013068	 -1.998183
C	 0.390751	 0.482368	 -1.221415
H	 -1.702421	 0.242778	 1.997269
C	 -0.044912	 1.181207	 1.017059
H	 0.972896	 0.546275	 -2.122299
C	 0.718666	 1.279742	 -0.133776
C	 0.274331	 2.000066	 2.165124
H	 1.546461	 1.961231	 -0.177458
N	 0.523216	 2.642480	 3.068597

14 12 9 5 F

