%nprocshared=1
%mem=2GB
#HF/6-31G* nosymm scf=tight 

Mol

0 1
O	 -0.488453	 0.057968	 1.132425
C	 -0.451170	 -1.129930	 1.097049
C	 0.801727	 -1.959116	 0.945507
O	 -1.528589	 -1.897310	 1.185968
C	 1.124911	 -2.785238	 2.184071
H	 1.613075	 -1.280220	 0.700432
H	 0.669725	 -2.590969	 0.072237
H	 1.272053	 -2.149836	 3.048928
H	 2.030738	 -3.360307	 2.024106
H	 0.320287	 -3.472711	 2.414906
C	 -1.372062	 -3.285500	 0.910600
C	 -1.082726	 -3.424857	 -0.568986
H	 -2.278127	 -3.804926	 1.191365
H	 -0.564281	 -3.675887	 1.514486
H	 -1.898563	 -3.024426	 -1.159938
H	 -0.955932	 -4.472118	 -0.823578
H	 -0.175307	 -2.894759	 -0.835149

2 4 11 13 F

4 2 3 6 F

