%nprocshared=1
%mem=2GB
#HF/6-31G* nosymm scf=tight 

Mol

0 1
O	 0.391030	 1.298905	 0.000133
C	 0.503002	 0.111612	 0.000005
C	 -0.702327	 -0.811998	 -0.000075
C	 1.863306	 -0.554493	 0.000030
C	 -0.339145	 -2.289797	 -0.079829
H	 -1.282418	 -0.604025	 0.897150
H	 -1.342525	 -0.525451	 -0.832423
H	 0.277565	 -2.583760	 0.760691
H	 -1.236277	 -2.900041	 -0.076374
H	 0.216924	 -2.504490	 -0.984216
H	 1.974395	 -1.189404	 -0.874166
H	 2.638695	 0.198920	 -0.000196
H	 1.974487	 -1.188655	 0.874727
