%nprocshared=1
%mem=2GB
#HF/6-31G* nosymm scf=tight 

Mol

0 1
H	 -3.489899	 1.228218	 -1.029938
O	 -3.452007	 0.283848	 -0.965577
C	 -3.181085	 -0.079926	 0.364119
C	 -1.765924	 0.277073	 0.805136
H	 -3.327791	 -1.152017	 0.410903
H	 -3.905698	 0.375695	 1.036898
C	 -1.651217	 1.673921	 1.416835
H	 -1.419356	 -0.467694	 1.522196
H	 -1.107609	 0.195539	 -0.058110
C	 -1.891311	 2.794742	 0.403279
H	 -0.668225	 1.787943	 1.863416
H	 -2.368430	 1.764104	 2.231001
C	 -3.146618	 2.569666	 -0.443852
H	 -1.965762	 3.741114	 0.933617
H	 -1.026673	 2.880188	 -0.253763
C	 -3.068977	 1.374634	 -1.400944
H	 -3.362226	 3.471975	 -1.013981
H	 -3.994217	 2.423262	 0.222450
C	 -4.403225	 0.983030	 -2.038780
H	 -2.680948	 0.519416	 -0.852924
H	 -2.343244	 1.587193	 -2.183461
H	 -5.152817	 0.776669	 -1.279395
H	 -4.293164	 0.088714	 -2.644522
H	 -4.791183	 1.765403	 -2.682631

20 16 13 17 F

17 13 10 7 F

13 10 7 11 F

11 7 4 3 F

1 2 3 5 F

