%nprocshared=1
%mem=2GB
#HF/6-31G* nosymm scf=tight 

Mol

0 1
O	 -0.806752	 -1.114546	 1.082146
C	 -0.561929	 -0.074560	 0.531515
C	 -1.597472	 1.034011	 0.503089
N	 0.623947	 0.147590	 -0.102813
H	 -1.868528	 1.298769	 -0.513038
H	 -2.472791	 0.671041	 1.019920
H	 -1.237628	 1.928840	 0.999450
C	 1.774702	 0.532299	 0.690685
C	 0.752184	 0.367311	 -1.526724
H	 2.666213	 0.498218	 0.074192
H	 1.884955	 -0.149151	 1.516161
H	 1.666112	 1.542120	 1.080419
H	 1.709848	 -0.015109	 -1.859402
H	 -0.015504	 -0.150782	 -2.079145
H	 0.706983	 1.424879	 -1.780338

2 4 8 10 F

