%nprocshared=1
%mem=2GB
#HF/6-31G* nosymm scf=tight 

Mol

0 1
H	 3.083879	 -1.346558	 0.395444
O	 2.172668	 -1.603300	 0.415122
C	 1.365383	 -0.540424	 0.207814
C	 1.271843	 0.093906	 -1.024330
C	 0.614742	 -0.086650	 1.278355
H	 1.856874	 -0.260821	 -1.856161
C	 0.428579	 1.180528	 -1.185044
H	 0.686054	 -0.575710	 2.230622
C	 -0.227033	 1.001830	 1.108997
H	 0.364610	 1.663254	 -2.143304
C	 -0.325266	 1.640751	 -0.120598
C	 -1.036297	 1.494505	 2.254961
H	 -0.980912	 2.484613	 -0.243196
O	 -1.155284	 0.923376	 3.291397
H	 -1.538347	 2.452047	 2.086717

11 9 12 14 F

