%nprocshared=1
%mem=2GB
#HF/6-31G* nosymm scf=tight 

Mol

0 1
O	 -0.554770	 1.253623	 -0.517980
C	 0.140502	 1.681556	 -1.381988
C	 1.339167	 0.980224	 -1.972945
O	 -0.054281	 2.863688	 -1.952602
C	 1.076151	 -0.481989	 -2.319498
H	 1.645198	 1.543799	 -2.850146
H	 2.154714	 1.075621	 -1.261230
C	 -0.152084	 -0.655562	 -3.214303
H	 0.947271	 -1.049859	 -1.403300
H	 1.950896	 -0.896797	 -2.810680
C	 -1.464890	 -0.451765	 -2.459314
H	 -0.100230	 0.047593	 -4.043134
H	 -0.141651	 -1.649501	 -3.657077
H	 -1.520751	 0.545808	 -2.033425
H	 -2.319467	 -0.580035	 -3.116216
H	 -1.562748	 -1.163796	 -1.645019
C	 1.065166	 3.726192	 -2.042424
H	 1.444631	 3.960080	 -1.058153
H	 0.709774	 4.621320	 -2.528624
H	 1.850932	 3.269393	 -2.626729

9 5 8 12 F

1 2 3 6 F

9 5 3 6 F

