%nprocshared=1
%mem=2GB
#HF/6-31G* nosymm scf=tight 

Mol

0 1
H	 2.672742	 1.259328	 -2.242676
O	 1.741074	 1.132258	 -2.354273
C	 1.149322	 0.829024	 -1.178574
C	 1.862086	 0.729411	 0.009428
C	 -0.217924	 0.614490	 -1.185181
H	 2.926053	 0.896748	 0.012383
C	 1.207853	 0.415642	 1.188919
H	 -0.769668	 0.691122	 -2.102123
C	 -0.865228	 0.300799	 0.000000
H	 1.770075	 0.341348	 2.102026
C	 -0.158332	 0.199623	 1.191567
C	 -2.333960	 0.069074	 0.000000
H	 -0.668530	 -0.044209	 2.106580
O	 -2.847347	 -1.003763	 0.000000
H	 -2.943845	 0.977528	 0.000000

4 3 2 1 F

