%nprocshared=1
%mem=2GB
#HF/6-31G* nosymm scf=tight 

Mol

0 1
H	 3.812798	 -6.328915	 1.169410
C	 3.345664	 -5.361941	 1.109983
C	 2.291823	 -5.050185	 1.955781
C	 3.799154	 -4.431613	 0.188153
H	 1.941096	 -5.772608	 2.670246
C	 1.691688	 -3.806645	 1.878777
H	 4.616187	 -4.675067	 -0.466669
C	 3.199934	 -3.186186	 0.109284
H	 0.875076	 -3.548072	 2.525273
C	 2.143521	 -2.870664	 0.955571
H	 3.547622	 -2.463204	 -0.602566
C	 1.463013	 -1.545621	 0.912827
O	 1.970282	 -0.730723	 0.000018
O	 0.555706	 -1.240224	 1.621618
C	 3.377318	 -0.566646	 -0.000065
H	 3.695437	 -0.028981	 -0.881264
H	 3.789299	 -1.563704	 0.000236
H	 3.695516	 -0.028316	 0.880770

12 13 15 16 F

13 12 10 6 F

