%nprocshared=8
%mem=2GB
#B3LYP/6-31G* nosymm scf=tight
# opt=ModRedundant  EmpiricalDispersion=GD3

Mol

1 1
C	 1.441303	 -0.197070	 -1.470058
C	 2.053232	 0.203006	 -0.267334
C	 3.419847	 0.009227	 -0.092590
C	 4.180684	 -0.571627	 -1.111884
C	 3.576409	 -0.965829	 -2.309666
C	 2.208962	 -0.785779	 -2.492401
C	 -0.000000	 -0.000000	 -1.658508
H	 1.459072	 0.615166	 0.543428
H	 3.889781	 0.301232	 0.840914
H	 5.247411	 -0.717481	 -0.972409
H	 4.172451	 -1.403585	 -3.103794
H	 1.751737	 -1.054182	 -3.440632
N	 -0.712589	 -0.905950	 -2.322235
N	 -0.591729	 1.084291	 -1.165321
H	 -1.595403	 1.221766	 -1.187777
H	 -0.030562	 1.845762	 -0.806800
H	 -1.377189	 -1.485970	 -1.827091
H	 -0.673431	 -1.006470	 -3.329771

1 7 13 17 F
