%nprocshared=1
%mem=2GB
#HF/6-31G* nosymm scf=tight 

Mol

0 1
O	 -0.806752	 -1.114546	 1.082146
C	 -0.561929	 -0.074560	 0.531515
C	 -1.597472	 1.034011	 0.503089
N	 0.623947	 0.147590	 -0.102813
H	 -1.868528	 1.298769	 -0.513038
H	 -2.472791	 0.671041	 1.019920
H	 -1.237628	 1.928840	 0.999450
C	 1.113162	 -0.852789	 -1.031138
C	 1.599739	 1.126472	 0.323645
H	 1.961580	 -0.454853	 -1.576897
H	 0.331765	 -1.111105	 -1.724414
H	 1.432589	 -1.752705	 -0.510044
H	 2.129243	 1.500433	 -0.544581
H	 1.131736	 1.968733	 0.807900
H	 2.332947	 0.699030	 1.005197

2 4 8 10 F

