%nprocshared=1
%mem=2GB
#HF/6-31G* nosymm scf=tight opt=ModRedundant

Mol

0 1
H	 -2.035000	 -1.300000	 0.000000
C	 -1.130000	 -0.718000	 0.000000
N	 0.000000	 -1.401000	 -0.000000
C	 -1.190000	 0.666000	 -0.000000
C	 1.130000	 -0.718000	 0.000000
H	 -2.140000	 1.169000	 0.000000
C	 -0.000000	 1.373000	 -0.000000
H	 2.036000	 -1.300000	 -0.000000
C	 1.190000	 0.666000	 0.000000
H	 -0.000000	 2.448000	 0.000000
H	 2.140000	 1.169000	 0.000000
