%nprocshared=1
%mem=2GB
#HF/6-31G* nosymm scf=tight 

Mol

0 1
H	 2.143544	 -1.153932	 2.396742
O	 2.540829	 -0.522605	 1.812542
C	 1.639065	 -0.029464	 0.940297
C	 2.089300	 0.912126	 0.020167
C	 0.315233	 -0.423904	 0.936207
H	 3.122795	 1.202292	 0.043638
C	 1.214344	 1.453983	 -0.898478
H	 -0.058728	 -1.147359	 1.633554
C	 -0.536158	 0.140425	 0.000000
H	 1.570422	 2.180311	 -1.605240
C	 -0.120869	 1.073910	 -0.922870
N	 -1.935604	 -0.280333	 0.000000
H	 -0.811541	 1.485291	 -1.629370
O	 -2.161694	 -1.452901	 0.000000
O	 -2.770341	 0.571417	 0.000000

4 3 2 1 F

