%nprocshared=1
%mem=2GB
#HF/6-31G* nosymm scf=tight 

Mol

0 1
H	 -1.993220	 0.752988	 4.265149
C	 -1.295229	 0.298799	 3.584485
C	 -0.989055	 -1.048368	 3.705092
C	 -0.704799	 1.062138	 2.589679
H	 -1.447666	 -1.639235	 4.477050
C	 -0.091483	 -1.631655	 2.829521
H	 -0.943360	 2.106284	 2.497726
C	 0.193971	 0.480393	 1.712093
H	 0.157297	 -2.672633	 2.907923
C	 0.502930	 -0.869543	 1.830332
H	 0.653236	 1.067317	 0.940785
C	 1.463013	 -1.545621	 0.912827
O	 1.970282	 -0.730723	 0.000018
O	 1.751718	 -2.699076	 0.983898
C	 3.377318	 -0.566646	 -0.000065
H	 3.695437	 -0.028981	 -0.881264
H	 3.789299	 -1.563704	 0.000236
H	 3.695516	 -0.028316	 0.880770

12 13 15 16 F

13 12 10 6 F

