%nprocshared=1
%mem=2GB
#HF/6-31G* nosymm scf=tight 

Mol

0 1
H	 -2.556862	 -0.212514	 -2.873506
C	 -1.657899	 -0.279397	 -2.288301
C	 -1.435436	 -1.373717	 -1.459328
C	 -0.706881	 0.718358	 -2.347486
H	 -2.165865	 -2.161022	 -1.400553
C	 -0.283934	 -1.462932	 -0.707476
H	 -0.861915	 1.572202	 -2.983097
C	 0.460504	 0.643438	 -1.595119
H	 -0.099557	 -2.302455	 -0.063240
C	 0.672202	 -0.451582	 -0.772201
H	 1.180945	 1.435302	 -1.662818
O	 1.765256	 -0.628444	 0.000000
C	 2.778419	 0.335181	 0.000000
H	 2.731280	 0.961222	 -0.884976
H	 3.711703	 -0.207767	 0.000000
H	 2.731280	 0.961222	 0.884976

13 12 10 8 F

