%nprocshared=1
%mem=2GB
#HF/6-31G* nosymm scf=tight 

Mol

0 1
H	 -3.420663	 1.227371	 -1.044276
O	 -3.452007	 0.283848	 -0.965577
C	 -3.181085	 -0.079926	 0.364119
C	 -1.765924	 0.277073	 0.805136
H	 -3.327791	 -1.152017	 0.410903
H	 -3.905698	 0.375695	 1.036898
C	 -0.677594	 -0.417312	 -0.014550
H	 -1.637766	 1.358238	 0.744969
H	 -1.659588	 0.017670	 1.857098
C	 0.578926	 -0.731648	 0.800023
H	 -0.417334	 0.207499	 -0.863423
H	 -1.080106	 -1.340777	 -0.427576
C	 0.264750	 -1.400522	 2.140913
H	 1.232085	 -1.370368	 0.210243
H	 1.133295	 0.188569	 0.980248
C	 -0.472330	 -0.507971	 3.146010
H	 1.190123	 -1.757704	 2.590138
H	 -0.341934	 -2.284371	 1.955003
C	 -1.027380	 -1.246958	 4.365118
H	 -1.295393	 -0.017545	 2.631872
H	 0.193597	 0.286289	 3.477516
H	 -1.687632	 -2.055829	 4.063563
H	 -1.598660	 -0.573657	 4.996895
H	 -0.238584	 -1.673884	 4.975608

20 16 13 17 F

17 13 10 7 F

13 10 7 11 F

1 2 3 5 F

7 4 3 2 F

