%nprocshared=1
%mem=2GB
#HF/6-31G* nosymm scf=tight opt=ModRedundant

Mol

0 1
H	 -2.823000	 0.877000	 -0.467000
C	 -2.362000	 0.000000	 -0.026000
N	 -0.945000	 0.000000	 -0.305000
H	 -2.823000	 -0.877000	 -0.467000
H	 -2.586000	 -0.000000	 1.045000
C	 -0.283000	 -1.193000	 0.189000
C	 -0.283000	 1.193000	 0.189000
H	 -0.369000	 -1.280000	 1.277000
H	 -0.754000	 -2.067000	 -0.250000
C	 1.187000	 -1.162000	 -0.194000
H	 -0.754000	 2.067000	 -0.250000
H	 -0.369000	 1.280000	 1.277000
C	 1.187000	 1.162000	 -0.194000
H	 1.715000	 -2.001000	 0.240000
H	 1.282000	 -1.215000	 -1.277000
O	 1.804000	 -0.000000	 0.284000
H	 1.715000	 2.001000	 0.240000
H	 1.282000	 1.215000	 -1.277000
