%nprocshared=1
%mem=2GB
#HF/6-31G* nosymm scf=tight 

Mol

0 1
H	 2.866480	 -0.465706	 0.876907
C	 2.405773	 -0.024801	 0.000000
N	 0.988830	 -0.304158	 0.000000
H	 2.866480	 -0.465706	 -0.876907
H	 2.629928	 1.045948	 0.000000
C	 0.221217	 0.728697	 0.670782
C	 0.682386	 -1.610428	 0.552919
H	 0.503724	 0.820055	 1.724510
H	 0.417264	 1.683306	 0.192731
C	 -1.261646	 0.408757	 0.577254
H	 1.216123	 -2.368632	 -0.011437
H	 0.998499	 -1.689521	 1.598058
C	 -0.812706	 -1.868337	 0.462517
H	 -1.843830	 1.120458	 1.147832
H	 -1.579829	 0.454215	 -0.462776
O	 -1.535001	 -0.857570	 1.107957
H	 -1.071073	 -2.799087	 0.950336
H	 -1.109767	 -1.930013	 -0.582912
