%nprocshared=1
%mem=2GB
#HF/6-31G* nosymm scf=tight 

Mol

0 1
H	 -1.801327	 2.135573	 1.015408
C	 -0.784594	 1.761925	 1.050973
C	 -0.603454	 0.661669	 0.000000
H	 -0.594464	 1.381807	 2.047368
H	 -0.109556	 2.588960	 0.867184
C	 0.763625	 0.112519	 0.000000
H	 -1.290788	 -0.156903	 0.179110
H	 -0.808952	 1.042600	 -0.993595
N	 1.813038	 -0.320305	 0.000000
