%nprocshared=1
%mem=2GB
#HF/6-31G* nosymm scf=tight 

Mol

0 1
H	 -2.075466	 1.453119	 -1.358357
C	 -1.068334	 1.055569	 -1.405933
C	 -0.603454	 0.661669	 0.000000
H	 -0.421102	 1.813383	 -1.830491
H	 -1.069785	 0.198521	 -2.068435
C	 0.763625	 0.112519	 0.000000
H	 -0.617636	 1.518870	 0.663005
H	 -1.262209	 -0.085759	 0.426569
N	 1.813038	 -0.320305	 0.000000
