%nprocshared=1
%mem=2GB
#HF/6-31G* nosymm scf=tight 

Mol

0 1
O	 -0.806752	 -1.114546	 1.082146
C	 -0.561929	 -0.074560	 0.531515
C	 -1.597472	 1.034011	 0.503089
N	 0.623947	 0.147590	 -0.102813
H	 -1.868528	 1.298769	 -0.513038
H	 -2.472791	 0.671041	 1.019920
H	 -1.237628	 1.928840	 0.999450
C	 1.125377	 1.505572	 -0.182373
C	 1.253466	 -0.798402	 -0.997828
H	 2.144639	 1.493113	 -0.552464
H	 1.106098	 1.952743	 0.796201
H	 0.523271	 2.110150	 -0.857189
H	 2.329056	 -0.683126	 -0.935741
H	 1.018568	 -1.816028	 -0.729141
H	 0.958089	 -0.636871	 -2.032948

2 4 8 10 F

