%nprocshared=1
%mem=2GB
#HF/6-31G* nosymm scf=tight 

Mol

0 1
H	 -0.314752	 3.001425	 -0.790005
C	 0.411227	 2.338203	 -0.303388
C	 0.065331	 0.871482	 -0.349150
O	 1.385684	 2.789984	 0.204596
C	 -1.061781	 0.566300	 -1.346127
H	 -0.193940	 0.549841	 0.652968
H	 0.965392	 0.337462	 -0.650606
C	 -1.262237	 -0.929538	 -1.592519
H	 -0.833788	 1.060427	 -2.285206
H	 -1.989716	 1.007739	 -0.988763
H	 -0.356788	 -1.383543	 -1.983117
H	 -2.057343	 -1.099258	 -2.311072
H	 -1.524845	 -1.456417	 -0.679926

6 3 5 9 F

