%nprocshared=1
%mem=2GB
#HF/6-31G* nosymm scf=tight 

Mol

0 1
H	 1.827116	 0.861670	 -2.699642
C	 1.697189	 0.630813	 -1.646047
C	 0.240492	 0.284811	 -1.353754
H	 1.999134	 1.494240	 -1.063736
H	 2.369930	 -0.185157	 -1.404910
N	 -0.000257	 -0.000071	 0.054619
H	 -0.369472	 1.132433	 -1.639863
H	 -0.081818	 -0.548070	 -1.985507
C	 -1.363055	 0.315058	 0.462241
C	 0.394048	 -1.352809	 0.425134
C	 -2.412078	 -0.285320	 -0.468531
H	 -1.482241	 1.391144	 0.451970
H	 -1.549931	 -0.001174	 1.492681
C	 0.808913	 -1.467658	 1.888670
H	 1.239459	 -1.641483	 -0.186505
H	 -0.400873	 -2.070660	 0.202471
H	 -2.262839	 0.075384	 -1.480151
H	 -2.369300	 -1.368867	 -0.491760
H	 -3.410332	 -0.003975	 -0.144961
H	 1.636876	 -0.798647	 2.094910
H	 0.000394	 -1.215375	 2.566314
H	 1.120664	 -2.483500	 2.114950
