%nprocshared=1
%mem=2GB
#HF/6-31G* nosymm scf=tight 

Mol

0 1
O	 1.316689	 1.559332	 -0.326568
C	 0.788116	 1.716284	 -1.379704
C	 0.200081	 0.623630	 -2.238883
O	 0.640172	 2.906476	 -1.947763
C	 -0.676190	 -0.353654	 -1.461253
H	 -0.358710	 1.103895	 -3.037514
H	 1.026778	 0.111409	 -2.723572
C	 -1.768387	 0.356824	 -0.660386
H	 -0.052416	 -0.940609	 -0.794486
H	 -1.125601	 -1.059332	 -2.152887
C	 -1.230060	 1.074587	 0.578516
H	 -2.277256	 1.077532	 -1.298845
H	 -2.524164	 -0.365489	 -0.355513
C	 -0.096872	 2.048581	 0.258405
H	 -0.880359	 0.337001	 1.297415
H	 -2.042053	 1.611713	 1.063596
H	 0.745219	 1.534883	 -0.196799
H	 0.262972	 2.541502	 1.156176
H	 -0.425624	 2.819516	 -0.432893
C	 1.792514	 3.724689	 -2.034891
H	 2.180449	 3.940881	 -1.049855
H	 1.472688	 4.634305	 -2.518819
H	 2.560106	 3.239076	 -2.620117

15 11 8 12 F

9 5 8 12 F

1 2 3 6 F

9 5 3 6 F

