%nprocshared=1
%mem=2GB
#HF/6-31G* nosymm scf=tight 

Mol

0 1
O	 -0.349654	 0.676134	 -1.784374
C	 0.140502	 1.681556	 -1.381988
C	 1.048739	 1.796805	 -0.182106
O	 -0.054281	 2.863688	 -1.952602
C	 2.149856	 0.741365	 -0.151610
H	 1.465366	 2.800380	 -0.185518
H	 0.423728	 1.739463	 0.704927
C	 2.961357	 0.710184	 -1.447704
H	 1.707175	 -0.233269	 0.029018
H	 2.807860	 0.934194	 0.690026
C	 2.193886	 0.079046	 -2.608590
H	 3.254203	 1.722836	 -1.717619
H	 3.885421	 0.159154	 -1.284785
H	 1.280781	 0.628313	 -2.818825
H	 2.791122	 0.069581	 -3.514955
H	 1.917058	 -0.946714	 -2.383150
C	 1.065166	 3.726192	 -2.042424
H	 1.444631	 3.960080	 -1.058153
H	 0.709774	 4.621320	 -2.528624
H	 1.850932	 3.269393	 -2.626729

9 5 8 12 F

1 2 3 6 F

9 5 3 6 F

