%nprocshared=1
%mem=2GB
#HF/6-31G* nosymm scf=tight 

Mol

0 1
H	 1.148083	 -1.049780	 0.784252
O	 1.319262	 -0.618148	 -0.041729
C	 0.709265	 0.639550	 -0.033818
C	 0.254841	 1.113616	 -1.389303
H	 1.443848	 1.329403	 0.365797
H	 -0.137092	 0.654857	 0.652092
C	 0.527131	 0.520563	 -2.534253
H	 -0.336156	 2.016466	 -1.381102
H	 1.127848	 -0.369565	 -2.581587
H	 0.168367	 0.915170	 -3.467821

5 3 4 7 F

3 4 7 9 F

