%nprocshared=1
%mem=2GB
#HF/6-31G* nosymm scf=tight 

Mol

0 1
O	 -0.488453	 0.057968	 1.132425
C	 -0.451170	 -1.129930	 1.097049
C	 0.801727	 -1.959116	 0.945507
O	 -1.528589	 -1.897310	 1.185968
C	 1.124911	 -2.785238	 2.184071
H	 1.613075	 -1.280220	 0.700432
H	 0.669725	 -2.590969	 0.072237
H	 1.272053	 -2.149836	 3.048928
H	 2.030738	 -3.360307	 2.024106
H	 0.320287	 -3.472711	 2.414906
C	 -1.327384	 -3.297695	 1.346710
C	 -0.746951	 -3.824413	 0.051343
H	 -2.274222	 -3.765397	 1.579816
H	 -0.659800	 -3.464541	 2.181027
H	 -1.424974	 -3.644774	 -0.775200
H	 -0.577201	 -4.893340	 0.130264
H	 0.198332	 -3.342373	 -0.170766

2 4 11 13 F

4 2 3 6 F

