%nprocshared=1
%mem=2GB
#HF/6-31G* nosymm scf=tight 

Mol

0 1
O	 -2.042549	 -1.228399	 -0.269030
C	 -1.653912	 -0.146171	 0.050137
C	 -0.332303	 0.024011	 0.778412
C	 -2.438579	 1.106236	 -0.272369
C	 0.451171	 -1.297732	 0.810583
H	 0.266545	 0.797449	 0.305594
H	 -0.553517	 0.339287	 1.792112
C	 -0.218545	 -2.358103	 1.685869
H	 1.461179	 -1.118047	 1.174838
H	 0.548159	 -1.667448	 -0.205805
C	 -1.713693	 -2.499508	 1.403483
H	 0.271416	 -3.316949	 1.531019
H	 -0.070381	 -2.103503	 2.732671
H	 -1.893017	 -2.787236	 0.371443
H	 -2.235930	 -1.564039	 1.581273
H	 -2.162381	 -3.255442	 2.040092
H	 -3.277823	 0.863061	 -0.908988
H	 -1.806773	 1.843019	 -0.759671
H	 -2.802853	 1.554979	 0.648059

11 8 5 9 F

9 5 3 2 F

