%nprocshared=1
%mem=2GB
#HF/6-31G* nosymm scf=tight 

Mol

0 1
H	 -2.798360	 -0.862255	 -0.071053
N	 -1.863561	 -0.715187	 0.256814
C	 -1.344686	 0.554728	 -0.219830
H	 -1.300452	 -1.461917	 -0.101532
C	 0.168200	 0.552454	 -0.154218
H	 -1.644192	 0.795924	 -1.240674
H	 -1.717151	 1.345428	 0.424255
O	 0.548778	 0.472014	 1.189574
H	 0.567896	 -0.296806	 -0.707967
H	 0.555033	 1.465230	 -0.601918
C	 1.922265	 0.546837	 1.402896
H	 2.093286	 0.473077	 2.468263
H	 2.447173	 -0.266944	 0.905691
H	 2.329455	 1.490023	 1.044556

8 5 3 6 F

5 8 11 13 F

11 8 5 3 F

