%nprocshared=1
%mem=2GB
#HF/6-31G* nosymm scf=tight 

Mol

0 1
O	 -1.276010	 1.052711	 -0.768302
C	 -1.204840	 0.067374	 -0.106123
C	 -2.388195	 -0.672128	 0.458071
O	 -0.067104	 -0.527208	 0.221609
H	 -2.388023	 -1.694060	 0.097175
H	 -3.300579	 -0.174919	 0.164318
H	 -2.315377	 -0.706351	 1.539059
C	 0.248570	 -1.798165	 -0.364008
C	 0.095058	 -1.615905	 -1.863609
C	 -0.671482	 -2.867924	 0.203235
H	 1.274314	 -2.030891	 -0.118659
H	 0.755308	 -0.835252	 -2.224022
H	 0.341187	 -2.538270	 -2.379358
H	 -0.924669	 -1.344080	 -2.114452
H	 -0.452986	 -3.828193	 -0.253008
H	 -0.535320	 -2.963623	 1.272944
H	 -1.709051	 -2.621646	 0.001230

11 8 4 2 F

