%nprocshared=1
%mem=2GB
#HF/6-31G* nosymm scf=tight 

Mol

0 1
H	 -3.567428	 0.504479	 -0.274338
O	 -3.106509	 -0.268149	 0.022670
C	 -1.775859	 -0.075673	 0.002908
C	 -1.206434	 1.125114	 -0.410452
C	 -0.971931	 -1.131052	 0.415149
H	 -1.836697	 1.938114	 -0.728429
C	 0.165445	 1.265717	 -0.409887
H	 -1.434802	 -2.047153	 0.729442
C	 0.398504	 -0.975114	 0.410109
H	 0.618290	 2.186550	 -0.726268
C	 0.984182	 0.218375	 0.000000
H	 1.021951	 -1.792660	 0.729475
C	 2.452467	 0.370529	 0.000000
O	 3.228994	 -0.533774	 0.000000
H	 2.809473	 1.405765	 0.000000

5 3 2 1 F

