%nprocshared=1
%mem=2GB
#HF/6-31G* nosymm scf=tight 

Mol

0 1
O	 -0.104585	 0.942173	 -1.249484
C	 0.788116	 1.716284	 -1.379704
C	 2.214774	 1.493824	 -0.940358
O	 0.640172	 2.906476	 -1.947763
C	 2.767822	 0.130418	 -1.343974
H	 2.812259	 2.300142	 -1.356985
H	 2.247353	 1.628608	 0.137367
C	 2.610473	 -0.139688	 -2.841086
H	 2.262658	 -0.643238	 -0.774365
H	 3.815778	 0.073266	 -1.066792
C	 1.168143	 -0.451661	 -3.243845
H	 2.961066	 0.723265	 -3.405350
H	 3.250780	 -0.971832	 -3.129920
C	 0.178353	 0.623945	 -2.798157
H	 0.875958	 -1.409717	 -2.819701
H	 1.113917	 -0.567419	 -4.324029
H	 0.184133	 0.739133	 -1.717920
H	 -0.834612	 0.374459	 -3.098340
H	 0.424288	 1.588294	 -3.233884
C	 1.792514	 3.724689	 -2.034891
H	 2.180449	 3.940881	 -1.049855
H	 1.472688	 4.634305	 -2.518819
H	 2.560106	 3.239076	 -2.620117

15 11 8 12 F

9 5 8 12 F

1 2 3 6 F

9 5 3 6 F

