%nprocshared=1
%mem=2GB
#HF/6-31G* nosymm scf=tight 
prop=(read,field)

Mol

0 1
H	 2.652446	 0.763227	 0.000000
O	 2.263391	 -0.100027	 -0.000000
C	 0.913116	 -0.015689	 -0.000000
C	 0.197972	 -1.206130	 -0.000000
C	 0.244209	 1.197426	 -0.000000
H	 0.735967	 -2.135845	 -0.000000
C	 -1.182900	 -1.171466	 -0.000000
H	 0.799666	 2.120458	 -0.000000
C	 -1.142915	 1.217489	 -0.000000
H	 -1.732168	 -2.096123	 -0.000000
C	 -1.864958	 0.038374	 -0.000000
H	 -1.654517	 2.163509	 -0.000000
H	 -2.939389	 0.057406	 -0.000000

@grid.dat /N
