%nprocshared=1
%mem=2GB
#HF/6-31G* nosymm scf=tight opt=ModRedundant

Mol

0 1
H	 -2.540000	 -0.711000	 -0.739000
O	 -2.389000	 -0.272000	 0.086000
C	 -1.225000	 0.506000	 0.001000
C	 0.022000	 -0.359000	 0.039000
H	 -1.217000	 1.118000	 -0.897000
H	 -1.229000	 1.172000	 0.852000
O	 1.131000	 0.478000	 -0.051000
H	 0.010000	 -1.071000	 -0.789000
H	 0.038000	 -0.935000	 0.963000
C	 2.357000	 -0.179000	 0.005000
H	 2.466000	 -0.886000	 -0.816000
H	 3.133000	 0.570000	 -0.072000
H	 2.477000	 -0.718000	 0.943000
