%nprocshared=1
%mem=2GB
#HF/6-31G* nosymm scf=tight 

Mol

0 1
H	 0.625057	 -5.287399	 0.778736
C	 0.825644	 -4.463699	 0.101215
C	 -0.368382	 -3.513462	 0.021752
H	 1.712839	 -3.949999	 0.460692
H	 1.060254	 -4.886474	 -0.871650
C	 -0.127859	 -2.340084	 -0.922563
H	 -0.602189	 -3.122079	 1.006913
H	 -1.246515	 -4.065771	 -0.308744
N	 -1.268658	 -1.446027	 -0.948991
H	 0.733030	 -1.773380	 -0.578062
H	 0.128795	 -2.717702	 -1.918008
C	 -1.217365	 -0.386708	 0.039277
H	 -1.355622	 -1.044301	 -1.863373
C	 -2.452633	 0.504241	 -0.042481
H	 -1.172857	 -0.848333	 1.022069
H	 -0.315698	 0.227728	 -0.054795
C	 -3.758029	 -0.289423	 -0.010781
H	 -2.394220	 1.093569	 -0.952170
H	 -2.440793	 1.210787	 0.785871
H	 -3.816659	 -0.981993	 -0.845726
H	 -4.617837	 0.370165	 -0.069296
H	 -3.847478	 -0.867502	 0.904682

15 12 14 18 F

