%nprocshared=1
%mem=2GB
#HF/6-31G* nosymm scf=tight 
prop=(read,field)

Mol

0 1
H	 1.709804	 -2.950281	 -0.144863
C	 1.453729	 -1.945309	 -0.468427
C	 0.408288	 -1.337957	 0.461786
H	 1.067366	 -1.996435	 -1.480293
H	 2.370311	 -1.365736	 -0.490941
N	 -0.000257	 -0.000071	 0.054620
H	 -0.463816	 -1.979585	 0.450592
H	 0.774871	 -1.342034	 1.492459
C	 -1.363055	 0.315058	 0.462242
C	 0.954295	 1.022487	 0.461882
C	 -2.412078	 -0.285320	 -0.468530
H	 -1.482241	 1.391144	 0.451971
H	 -1.549931	 -0.001174	 1.492682
C	 0.958994	 2.231062	 -0.469013
H	 1.945670	 0.587494	 0.451361
H	 0.774214	 1.342612	 1.492357
H	 -2.262839	 0.075384	 -1.480150
H	 -2.369300	 -1.368867	 -0.491759
H	 -3.410332	 -0.003975	 -0.144960
H	 1.196370	 1.921340	 -1.480625
H	 -0.000665	 2.736110	 -0.492084
H	 1.702009	 2.954756	 -0.145714

@grid.dat /N
