%nprocshared=1
%mem=2GB
#HF/6-31G* nosymm scf=tight 

Mol

0 1
H	 1.267501	 -1.116709	 -0.215711
O	 1.482775	 -0.210849	 -0.391576
C	 0.645998	 0.612193	 0.367615
C	 -0.795902	 0.595680	 -0.067389
H	 1.043251	 1.616452	 0.273514
H	 0.703219	 0.352940	 1.424280
C	 -1.522220	 -0.487727	 -0.255690
H	 -1.233028	 1.568608	 -0.231139
H	 -1.071454	 -1.449856	 -0.418625
H	 -2.596511	 -0.445958	 -0.267127

5 3 2 1 F

5 3 4 7 F

