%nprocshared=1
%mem=2GB
#HF/6-31G* nosymm scf=tight 

Mol

0 1
O	 1.432740	 -0.053868	 -0.542746
C	 0.331280	 0.367453	 -0.359138
C	 -0.889235	 -0.467034	 -0.705952
C	 0.094253	 1.729748	 0.253516
C	 -1.047154	 -0.600408	 -2.229242
H	 -1.758356	 0.034711	 -0.294631
H	 -0.820656	 -1.451598	 -0.252125
C	 0.149006	 -1.302371	 -2.876593
H	 -1.963033	 -1.145506	 -2.427781
H	 -1.166334	 0.386787	 -2.673077
C	 0.075323	 -1.399736	 -4.404711
H	 0.247240	 -2.302033	 -2.457363
H	 1.057485	 -0.767858	 -2.606759
C	 -1.053427	 -2.288511	 -4.930067
H	 1.023541	 -1.787350	 -4.768483
H	 -0.024340	 -0.400645	 -4.824201
H	 -0.984148	 -3.291584	 -4.518035
H	 -1.004790	 -2.372263	 -6.011279
H	 -2.032469	 -1.894716	 -4.678683
H	 -0.371734	 2.383618	 -0.478996
H	 1.032943	 2.160323	 0.573285
H	 -0.585770	 1.658674	 1.097508

6 3 2 1 F

3 5 8 12 F

12 8 11 15 F

