%nprocshared=1
%mem=2GB
#HF/6-31G* nosymm scf=tight 

Mol

0 1
H	 0.610031	 -5.401046	 -2.417217
C	 0.805840	 -4.544581	 -1.780133
C	 -0.363399	 -3.561124	 -1.805727
H	 0.984601	 -4.915742	 -0.774891
H	 1.723153	 -4.077757	 -2.127780
C	 -0.127859	 -2.340084	 -0.922563
H	 -1.274330	 -4.053218	 -1.479481
H	 -0.537028	 -3.235005	 -2.829880
N	 -1.268658	 -1.446027	 -0.948991
H	 0.019580	 -2.663557	 0.104370
H	 0.799089	 -1.841960	 -1.225910
C	 -1.217365	 -0.386708	 0.039277
H	 -1.355622	 -1.044301	 -1.863373
C	 -2.452633	 0.504241	 -0.042481
H	 -1.172857	 -0.848333	 1.022069
H	 -0.315698	 0.227728	 -0.054795
C	 -3.758029	 -0.289423	 -0.010781
H	 -2.394220	 1.093569	 -0.952170
H	 -2.440793	 1.210787	 0.785871
H	 -3.816659	 -0.981993	 -0.845726
H	 -4.617837	 0.370165	 -0.069296
H	 -3.847478	 -0.867502	 0.904682

15 12 14 18 F

