%nprocshared=1
%mem=2GB
#HF/6-31G* nosymm scf=tight 

Mol

0 1
O	 0.829506	 -1.452474	 -2.072515
C	 0.148695	 -1.335350	 -1.105998
C	 -1.257483	 -1.851392	 -0.968410
O	 0.550821	 -0.724572	 0.000672
H	 -1.313273	 -2.544731	 -0.137235
H	 -1.553187	 -2.344252	 -1.882489
H	 -1.929863	 -1.028523	 -0.755401
C	 1.863949	 -0.193559	 -0.000319
H	 2.028859	 0.409284	 -0.881648
H	 2.526261	 -1.045082	 -0.000003
H	 2.029520	 0.410555	 0.880008

8 4 2 1 F

