%nprocshared=1
%mem=2GB
#HF/6-31G* nosymm scf=tight 

Mol

0 1
O	 2.120584	 1.753525	 -0.577226
C	 0.973153	 1.417650	 -0.453570
C	 -0.141779	 2.425294	 -0.662534
N	 0.623947	 0.147590	 -0.102813
H	 -0.748301	 2.537670	 0.229422
H	 0.319352	 3.372179	 -0.898785
H	 -0.794298	 2.134664	 -1.478827
C	 1.665360	 -0.855771	 0.000151
C	 -0.727177	 -0.365778	 -0.159024
H	 2.465253	 -0.618490	 -0.692587
H	 1.257730	 -1.821716	 -0.242189
H	 2.081488	 -0.891645	 1.004627
H	 -0.856523	 -1.108818	 0.618922
H	 -1.454827	 0.412198	 0.008943
H	 -0.942163	 -0.840089	 -1.114861

8 4 2 3 F

