%nprocshared=1
%mem=2GB
#HF/6-31G* nosymm scf=tight 

Mol

0 1
H	 -1.630278	 0.069849	 1.367966
C	 -0.928144	 -0.484033	 0.778805
C	 -0.922020	 -1.867295	 0.773667
C	 0.000000	 0.183220	 0.000000
H	 -1.634659	 -2.404452	 1.371642
C	 0.000000	 -2.555744	 0.000000
N	 0.000000	 1.642018	 0.000000
C	 0.928144	 -0.484034	 -0.778805
H	 0.000000	 -3.630640	 0.000000
C	 0.922020	 -1.867295	 -0.773667
O	 1.057097	 2.196749	 0.000000
O	 -1.057097	 2.196749	 0.000000
H	 1.630278	 0.069849	 -1.367966
H	 1.634659	 -2.404452	 -1.371642
