%nprocshared=1
%mem=2GB
#HF/6-31G* nosymm scf=tight 

Mol

0 1
O	 -1.487788	 1.240889	 -0.102860
C	 -1.083277	 0.139568	 0.115197
C	 0.323299	 -0.082943	 0.642902
C	 -1.933017	 -1.084621	 -0.143902
C	 1.355627	 -0.005344	 -0.493127
H	 0.396251	 -1.044647	 1.143147
H	 0.528637	 0.693580	 1.371677
C	 2.477738	 -1.028776	 -0.329715
H	 0.861497	 -0.161492	 -1.449540
H	 1.769526	 0.997307	 -0.515896
H	 3.195691	 -0.949992	 -1.139670
H	 2.089037	 -2.043041	 -0.328382
H	 3.011884	 -0.876709	 0.603350
H	 -1.393885	 -1.806447	 -0.750509
H	 -2.850323	 -0.799888	 -0.640100
H	 -2.169004	 -1.571158	 0.798858

4 2 3 5 F

