%nprocshared=1
%mem=2GB
#HF/6-31G* nosymm scf=tight 

Mol

0 1
O	 -1.276010	 1.052711	 -0.768302
C	 -1.204840	 0.067374	 -0.106123
C	 -2.388195	 -0.672128	 0.458071
O	 -0.067104	 -0.527208	 0.221609
H	 -2.388023	 -1.694060	 0.097175
H	 -3.300579	 -0.174919	 0.164318
H	 -2.315377	 -0.706351	 1.539059
C	 -0.107932	 -1.713527	 1.027157
C	 -1.080759	 -2.652986	 0.336785
C	 -0.527932	 -1.357709	 2.444774
H	 0.883261	 -2.142427	 1.036544
H	 -0.753436	 -2.867935	 -0.674108
H	 -1.147250	 -3.588809	 0.881895
H	 -2.070885	 -2.212488	 0.289195
H	 -0.583071	 -2.254419	 3.053779
H	 0.187341	 -0.684239	 2.899527
H	 -1.504858	 -0.884821	 2.443366

11 8 4 2 F

