%nprocshared=1
%mem=2GB
#HF/6-31G* nosymm scf=tight opt=ModRedundant

Mol

0 1
H	 1.267000	 -0.971000	 -0.761000
C	 1.210000	 -0.221000	 0.020000
N	 0.000000	 0.555000	 -0.146000
H	 2.074000	 0.426000	 -0.079000
H	 1.276000	 -0.736000	 0.982000
C	 -1.210000	 -0.221000	 0.020000
H	 0.000000	 1.324000	 0.495000
H	 -1.267000	 -0.971000	 -0.761000
H	 -2.074000	 0.426000	 -0.079000
H	 -1.276000	 -0.736000	 0.982000
