%nprocshared=1
%mem=2GB
#HF/6-31G* nosymm scf=tight 

Mol

0 1
H	 -0.571303	 2.093096	 0.896234
C	 0.184500	 1.334341	 1.104415
N	 0.538815	 0.649616	 0.000000
O	 0.622282	 1.162710	 2.203550
C	 1.521968	 -0.411503	 0.000000
H	 0.096692	 0.892296	 -0.856690
H	 2.150599	 -0.357004	 -0.881901
H	 0.999455	 -1.354525	 0.000000
H	 2.150599	 -0.357004	 0.881901

1 2 3 6 F

