%nprocshared=8
%mem=2GB
#B3LYP/6-31G* nosymm scf=tight
# opt=ModRedundant  EmpiricalDispersion=GD3

Mol

1 1
C	 -0.671225	 0.940831	 -0.755181
C	 -0.210557	 2.266963	 -0.654075
C	 -0.854204	 3.155994	 0.200947
C	 -1.946973	 2.728999	 0.961707
C	 -2.404001	 1.410909	 0.866893
C	 -1.774378	 0.515244	 0.008359
C	 -0.000000	 -0.000000	 -1.658508
H	 0.610625	 2.614504	 -1.274649
H	 -0.510999	 4.183322	 0.266834
H	 -2.443756	 3.425320	 1.630272
H	 -3.243638	 1.079411	 1.469100
H	 -2.105921	 -0.518605	 -0.030015
N	 -0.712589	 -0.905950	 -2.322235
N	 1.320019	 0.054538	 -1.812253
H	 1.818719	 -0.508987	 -2.490858
H	 1.876493	 0.627749	 -1.191729
H	 -1.377189	 -1.485970	 -1.827091
H	 -0.673431	 -1.006470	 -3.329771

1 7 13 17 F
