%nprocshared=1
%mem=2GB
#HF/6-31G* nosymm scf=tight 

Mol

0 1
H	 -2.404334	 -1.373657	 0.632851
O	 -2.551101	 -0.732826	 -0.048459
C	 -1.529237	 0.227405	 -0.021265
C	 -0.161619	 -0.425622	 0.072767
H	 -1.565324	 0.876442	 -0.891787
H	 -1.697353	 0.840247	 0.853156
O	 -0.043959	 -1.331029	 -0.978982
H	 -0.055426	 -0.936140	 1.031972
H	 0.612132	 0.338179	 0.022772
C	 -0.381609	 -0.813417	 -2.226865
H	 0.366496	 -0.106062	 -2.579876
H	 -0.435693	 -1.641239	 -2.920182
H	 -1.346371	 -0.311084	 -2.200645

8 4 3 5 F

1 2 3 5 F

10 7 4 8 F

