%nprocshared=1
%mem=2GB
#HF/6-31G* nosymm scf=tight 

Mol

0 1
H	 3.089270	 -1.380733	 0.000000
O	 2.178328	 -1.639175	 0.000000
C	 1.368216	 -0.558384	 0.000000
C	 1.860335	 0.740509	 0.000000
C	 0.002197	 -0.780696	 0.000000
H	 2.923753	 0.911324	 0.000000
C	 0.987037	 1.815228	 0.000000
H	 -0.379245	 -1.783481	 0.000000
C	 -0.865228	 0.300799	 0.000000
H	 1.379669	 2.815837	 0.000000
C	 -0.379640	 1.602327	 0.000000
C	 -2.333960	 0.069074	 0.000000
H	 -1.059782	 2.435641	 0.000000
O	 -2.847347	 -1.003763	 0.000000
H	 -2.943845	 0.977528	 0.000000

4 3 2 1 F

