%nprocshared=1
%mem=2GB
#HF/6-31G* nosymm scf=tight 

Mol

0 1
H	 1.994625	 -0.187877	 0.458793
C	 1.156413	 -0.206753	 -0.224103
O	 0.000000	 0.000000	 0.521119
H	 1.293668	 0.572826	 -0.971837
H	 1.137015	 -1.170072	 -0.731379
C	 -1.165642	 0.000000	 -0.238270
H	 -1.228672	 0.883184	 -0.872070
H	 -2.003012	 0.000000	 0.445920
H	 -1.228672	 -0.883184	 -0.872070
