%nprocshared=1
%mem=2GB
#HF/6-31G* nosymm scf=tight 

Mol

0 1
O	 -0.806752	 -1.114546	 1.082146
C	 -0.561929	 -0.074560	 0.531515
C	 -1.597472	 1.034011	 0.503089
N	 0.623947	 0.147590	 -0.102813
H	 -1.868528	 1.298769	 -0.513038
H	 -2.472791	 0.671041	 1.019920
H	 -1.237628	 1.928840	 0.999450
C	 1.704883	 -0.798270	 0.094175
C	 1.009498	 1.417600	 -0.677852
H	 2.505510	 -0.582443	 -0.604704
H	 1.342452	 -1.797214	 -0.075221
H	 2.105328	 -0.735952	 1.103721
H	 1.648731	 1.239256	 -1.534365
H	 0.152278	 1.974617	 -1.021134
H	 1.561379	 2.033332	 0.030042

2 4 8 10 F

