%nprocshared=1
%mem=2GB
#HF/6-31G* nosymm scf=tight 

Mol

0 1
H	 -3.161837	 0.500524	 -0.000234
C	 -2.367097	 -0.232926	 -0.000000
O	 -1.158440	 0.455814	 -0.000122
H	 -2.468853	 -0.861886	 -0.882833
H	 -2.468942	 -0.861421	 0.883154
C	 -1.058687	 1.440634	 0.983775
C	 -1.428047	 0.832301	 2.325477
H	 -1.723083	 2.273572	 0.749912
H	 -0.043498	 1.838530	 1.015064
C	 -2.927923	 0.570915	 2.455594
H	 -0.874163	 -0.093381	 2.447896
H	 -1.094559	 1.503200	 3.111212
H	 -3.277902	 -0.118397	 1.692189
H	 -3.163041	 0.137556	 3.421910
H	 -3.500028	 1.489537	 2.359502

6 3 2 4 F

11 7 6 8 F

