%nprocshared=1
%mem=2GB
#HF/6-31G* nosymm scf=tight 

Mol

0 1
O	 -0.584797	 0.753697	 -1.543419
C	 0.140502	 1.681556	 -1.381988
C	 1.381331	 1.687155	 -0.522799
O	 -0.054281	 2.863688	 -1.952602
C	 2.279982	 0.475060	 -0.747729
H	 1.912001	 2.613586	 -0.724960
H	 1.058855	 1.751415	 0.512882
C	 2.639435	 0.283396	 -2.221984
H	 1.783493	 -0.413950	 -0.371347
H	 3.185628	 0.586339	 -0.159575
C	 1.471292	 -0.252425	 -3.048630
H	 2.972678	 1.230747	 -2.640970
H	 3.482536	 -0.399545	 -2.304705
H	 0.623661	 0.425795	 -3.014066
H	 1.752370	 -0.378879	 -4.089438
H	 1.137577	 -1.216408	 -2.675790
C	 1.065166	 3.726192	 -2.042424
H	 1.444631	 3.960080	 -1.058153
H	 0.709774	 4.621320	 -2.528624
H	 1.850932	 3.269393	 -2.626729

9 5 8 12 F

1 2 3 6 F

9 5 3 6 F

