%nprocshared=1
%mem=2GB
#HF/6-31G* nosymm scf=tight 

Mol

0 1
H	 3.006239	 -0.854462	 1.463803
O	 2.091166	 -1.086716	 1.536643
C	 1.324582	 -0.281817	 0.769259
C	 1.860684	 0.738297	 -0.006154
C	 -0.041682	 -0.502579	 0.773572
H	 2.924212	 0.908419	 -0.008082
C	 1.031055	 1.536234	 -0.776012
H	 -0.457072	 -1.290192	 1.372063
C	 -0.865228	 0.300799	 0.000000
H	 1.457493	 2.322572	 -1.372000
C	 -0.335524	 1.322712	 -0.777740
C	 -2.333960	 0.069074	 0.000000
H	 -0.981789	 1.941307	 -1.374973
O	 -2.847347	 -1.003763	 0.000000
H	 -2.943845	 0.977528	 0.000000

4 3 2 1 F

