%nprocshared=1
%mem=2GB
#HF/6-31G* nosymm scf=tight 

Mol

0 1
H	 -0.000158	 1.970498	 0.756846
O	 -0.000074	 1.880206	 -0.189275
C	 -0.000015	 0.544847	 -0.545111
C	 0.417078	 -0.309917	 0.647114
C	 0.861405	 0.338633	 -1.786654
H	 -1.012586	 0.271976	 -0.802684
F	 -0.428447	 -0.128129	 1.638872
F	 0.436138	 -1.593849	 0.358126
F	 1.621212	 0.034791	 1.074707
F	 0.378962	 1.050372	 -2.782752
F	 0.896649	 -0.921294	 -2.165760
F	 2.103927	 0.739004	 -1.568891

7 4 3 6 F

