%nprocshared=1
%mem=2GB
#HF/6-31G* nosymm scf=tight 

Mol

0 1
H	 1.279338	 -4.431692	 1.484290
C	 1.213411	 -3.956811	 0.510692
C	 0.002503	 -3.028079	 0.432452
H	 2.138178	 -3.410627	 0.347241
H	 1.157817	 -4.743217	 -0.236784
C	 -0.127859	 -2.340084	 -0.922563
H	 0.064428	 -2.265698	 1.202732
H	 -0.902514	 -3.598979	 0.633476
N	 -1.268658	 -1.446027	 -0.948991
H	 0.764333	 -1.749217	 -1.111858
H	 -0.172064	 -3.095567	 -1.714187
C	 -1.217365	 -0.386708	 0.039277
H	 -1.355622	 -1.044301	 -1.863373
C	 -2.452633	 0.504241	 -0.042481
H	 -1.172857	 -0.848333	 1.022069
H	 -0.315698	 0.227728	 -0.054795
C	 -3.758029	 -0.289423	 -0.010781
H	 -2.394220	 1.093569	 -0.952170
H	 -2.440793	 1.210787	 0.785871
H	 -3.816659	 -0.981993	 -0.845726
H	 -4.617837	 0.370165	 -0.069296
H	 -3.847478	 -0.867502	 0.904682

15 12 14 18 F

