%nprocshared=1
%mem=2GB
#HF/6-31G* nosymm scf=tight 

Mol

0 1
O	 -0.806752	 -1.114546	 1.082146
C	 -0.561929	 -0.074560	 0.531515
C	 -1.597472	 1.034011	 0.503089
N	 0.623947	 0.147590	 -0.102813
H	 -1.868528	 1.298769	 -0.513038
H	 -2.472791	 0.671041	 1.019920
H	 -1.237628	 1.928840	 0.999450
C	 1.222022	 -0.936582	 -0.856971
C	 1.504449	 1.256884	 0.191174
H	 2.054808	 -0.555964	 -1.438017
H	 0.487712	 -1.359840	 -1.519982
H	 1.593099	 -1.718566	 -0.198015
H	 2.032495	 1.539080	 -0.711917
H	 0.955244	 2.120462	 0.531086
H	 2.245090	 0.998771	 0.945920

2 4 8 10 F

