%nprocshared=1
%mem=2GB
#HF/6-31G* nosymm scf=tight 

Mol

0 1
H	 -0.721341	 -0.183744	 -0.863106
N	 -0.626943	 -0.667432	 -0.000092
C	 -1.513076	 -1.778863	 0.261072
C	 0.325755	 -0.252874	 0.869779
H	 -2.303751	 -1.827737	 -0.480176
H	 -1.954022	 -1.636730	 1.234259
H	 -0.970857	 -2.718533	 0.254007
C	 1.674978	 -0.919497	 0.690344
O	 0.127974	 0.574320	 1.716447
H	 2.068026	 -0.726742	 -0.302990
H	 2.359261	 -0.526889	 1.427442
H	 1.590945	 -1.994555	 0.814939

4 2 3 5 F

