%nprocshared=1
%mem=2GB
#HF/6-31G* nosymm scf=tight 

Mol

0 1
O	 1.694251	 1.447774	 -0.658635
C	 0.788116	 1.716284	 -1.379704
C	 -0.332108	 0.782302	 -1.767833
O	 0.640172	 2.906476	 -1.947763
C	 -0.934833	 0.033268	 -0.583217
H	 -1.083842	 1.373619	 -2.283540
H	 0.061995	 0.093412	 -2.510014
C	 -1.375728	 0.976961	 0.536657
H	 -0.208093	 -0.677288	 -0.202235
H	 -1.780932	 -0.554685	 -0.924884
C	 -0.201145	 1.558819	 1.325107
H	 -1.963055	 1.791754	 0.115759
H	 -2.037765	 0.446775	 1.219659
C	 0.831933	 2.248192	 0.434732
H	 0.281274	 0.764134	 1.889809
H	 -0.577315	 2.268618	 2.058468
H	 1.252508	 1.554489	 -0.287837
H	 1.651385	 2.650222	 1.022373
H	 0.386936	 3.070705	 -0.118223
C	 1.792514	 3.724689	 -2.034891
H	 2.180449	 3.940881	 -1.049855
H	 1.472688	 4.634305	 -2.518819
H	 2.560106	 3.239076	 -2.620117

15 11 8 12 F

9 5 8 12 F

1 2 3 6 F

9 5 3 6 F

