%nprocshared=1
%mem=2GB
#HF/6-31G* nosymm scf=tight 

Mol

0 1
H	 -2.698709	 -0.000305	 0.034435
C	 -1.693833	 0.000034	 0.434417
O	 -0.828952	 -0.000968	 -0.659236
H	 -1.574200	 0.882896	 1.055746
H	 -1.574147	 -0.881698	 1.057355
C	 0.332483	 0.794132	 -0.601031
C	 0.031485	 2.282654	 -0.764186
C	 1.178307	 0.505236	 0.637549
H	 0.895033	 0.472302	 -1.469359
H	 -0.611248	 2.444570	 -1.622804
H	 0.954017	 2.832780	 -0.920816
H	 -0.453633	 2.702268	 0.111456
H	 1.328727	 -0.563073	 0.749559
H	 2.150887	 0.977748	 0.541191
H	 0.720340	 0.884250	 1.545545

9 6 3 2 F

