%nprocshared=1
%mem=2GB
#HF/6-31G* nosymm scf=tight 

Mol

0 1
H	 -2.451494	 -1.810377	 -0.006042
C	 -1.673603	 -1.072620	 -0.003486
C	 -1.967531	 0.331346	 -0.000203
C	 -0.384881	 -1.436780	 -0.003272
H	 -2.993103	 0.655762	 -0.000303
C	 -0.977539	 1.235430	 0.002982
H	 -0.081061	 -2.466388	 -0.005595
N	 0.640212	 -0.532897	 -0.000111
H	 -1.159195	 2.292478	 0.005508
C	 0.424726	 0.838902	 0.003260
C	 2.010177	 -1.032049	 0.000042
O	 1.343341	 1.620146	 0.006180
H	 2.187698	 -1.635381	 -0.882279
H	 2.677579	 -0.189247	 -0.001871
H	 2.188882	 -1.632203	 0.884288
