%nprocshared=1
%mem=2GB
#HF/6-31G* nosymm scf=tight 

Mol

0 1
H	 -0.231533	 -0.850569	 -3.709148
N	 -0.769421	 -0.630223	 -2.893263
C	 -0.318711	 -1.412645	 -1.751246
H	 -1.724574	 -0.843592	 -3.110026
C	 -1.073165	 -1.005261	 -0.490060
H	 0.740377	 -1.216370	 -1.614616
H	 -0.420409	 -2.490252	 -1.902309
C	 -0.679275	 0.379305	 0.025956
H	 -2.138032	 -1.038128	 -0.701749
H	 -0.890536	 -1.745382	 0.288530
C	 -0.791153	 1.473151	 -1.037697
H	 0.343184	 0.347717	 0.399358
H	 -1.305749	 0.643014	 0.876741
C	 -2.115055	 2.234023	 -0.975523
H	 0.033362	 2.173024	 -0.921214
H	 -0.676491	 1.028719	 -2.024099
H	 -2.243718	 2.718807	 -0.011807
H	 -2.163946	 3.002377	 -1.740928
H	 -2.958889	 1.565841	 -1.123406

6 3 5 9 F

12 8 5 9 F

1 2 3 6 F

