%nprocshared=8
%mem=2GB
#B3LYP/6-31G* nosymm scf=tight
# opt=ModRedundant  EmpiricalDispersion=GD3

Mol

1 1
C	 0.720408	 -0.384683	 -0.440011
C	 0.811406	 0.517802	 0.636234
C	 1.492026	 0.145489	 1.791162
C	 2.089635	 -1.115823	 1.875899
C	 2.004920	 -2.012788	 0.806552
C	 1.318971	 -1.655381	 -0.349932
C	 -0.000000	 -0.000000	 -1.658508
H	 0.312505	 1.481821	 0.591468
H	 1.548044	 0.833659	 2.628311
H	 2.622819	 -1.400532	 2.777725
H	 2.481711	 -2.985466	 0.870593
H	 1.292357	 -2.338784	 -1.194023
N	 -0.712589	 -0.905950	 -2.322235
N	 0.060651	 1.254072	 -2.097470
H	 -0.490491	 1.591086	 -2.878130
H	 0.726233	 1.898600	 -1.691429
H	 -1.377189	 -1.485970	 -1.827091
H	 -0.673431	 -1.006470	 -3.329771

1 7 13 17 F
