%nprocshared=1
%mem=2GB
#HF/6-31G* nosymm scf=tight 

Mol

0 1
H	 -2.273092	 1.173159	 0.000295
O	 -1.438904	 1.618192	 0.000114
C	 -0.409536	 0.736003	 0.000030
C	 0.062734	 0.331554	 1.238812
C	 0.156325	 0.250734	 -1.176939
H	 -0.402243	 0.730291	 2.121306
C	 1.110241	 -0.566239	 1.317600
C	 1.208158	 -0.650776	 -1.067772
C	 -0.360293	 0.693357	 -2.527568
H	 1.472008	 -0.876062	 2.281773
C	 1.690204	 -1.063625	 0.161648
H	 1.656194	 -1.034972	 -1.967773
H	 -0.263400	 1.768005	 -2.667879
H	 0.195653	 0.216520	 -3.324766
H	 -1.407623	 0.433545	 -2.667544
H	 2.505263	 -1.762186	 0.215401
