%nprocshared=1
%mem=2GB
#HF/6-31G* nosymm scf=tight 

Mol

0 1
H	 -3.489899	 1.228218	 -1.029938
O	 -3.452007	 0.283848	 -0.965577
C	 -3.181085	 -0.079926	 0.364119
C	 -1.765924	 0.277073	 0.805136
H	 -3.327791	 -1.152017	 0.410903
H	 -3.905698	 0.375695	 1.036898
C	 -1.460114	 -0.114569	 2.251378
H	 -1.053374	 -0.205184	 0.135313
H	 -1.626806	 1.348872	 0.674310
C	 -2.257009	 0.697362	 3.274561
H	 -0.396997	 0.005392	 2.436042
H	 -1.675264	 -1.173499	 2.384688
C	 -3.748066	 0.778015	 2.936436
H	 -2.122654	 0.255206	 4.258871
H	 -1.848509	 1.705408	 3.334367
C	 -4.076287	 1.575354	 1.668888
H	 -4.285274	 1.208826	 3.779943
H	 -4.132849	 -0.232708	 2.817281
C	 -5.518178	 1.426800	 1.179718
H	 -3.405038	 1.253495	 0.876347
H	 -3.859663	 2.627966	 1.840019
H	 -5.767428	 0.382345	 1.012006
H	 -5.663498	 1.954732	 0.242165
H	 -6.232293	 1.827160	 1.891698

20 16 13 17 F

17 13 10 7 F

13 10 7 11 F

11 7 4 3 F

1 2 3 5 F

