%nprocshared=1
%mem=2GB
#HF/6-31G* nosymm scf=tight 

Mol

0 1
O	 -0.478074	 0.708945	 -1.672562
C	 0.140502	 1.681556	 -1.381988
C	 1.230373	 1.750423	 -0.340196
O	 -0.054281	 2.863688	 -1.952602
C	 2.243158	 0.614488	 -0.446309
H	 1.713218	 2.718848	 -0.439034
H	 0.748550	 1.758619	 0.633731
C	 2.838596	 0.495706	 -1.850129
H	 1.764334	 -0.319603	 -0.169351
H	 3.036395	 0.772827	 0.277713
C	 1.855972	 -0.097456	 -2.858897
H	 3.158678	 1.477425	 -2.193425
H	 3.734232	 -0.121225	 -1.814032
H	 0.963639	 0.515947	 -2.943353
H	 2.302568	 -0.170499	 -3.845554
H	 1.543794	 -1.094344	 -2.561577
C	 1.065166	 3.726192	 -2.042424
H	 1.444631	 3.960080	 -1.058153
H	 0.709774	 4.621320	 -2.528624
H	 1.850932	 3.269393	 -2.626729

9 5 8 12 F

1 2 3 6 F

9 5 3 6 F

