%nprocshared=1
%mem=2GB
#HF/6-31G* nosymm scf=tight 

Mol

0 1
H	 7.179065	 -2.372259	 -3.466003
C	 6.807537	 -2.242877	 -2.454198
C	 7.570782	 -3.126429	 -1.468314
H	 6.909920	 -1.193025	 -2.195991
H	 5.747387	 -2.481346	 -2.458001
C	 7.066874	 -2.973359	 -0.031491
H	 8.626780	 -2.879906	 -1.509514
H	 7.478413	 -4.167778	 -1.772864
C	 5.545449	 -3.048289	 0.098578
H	 7.511998	 -3.739383	 0.593582
H	 7.396515	 -2.013715	 0.360251
C	 4.964761	 -4.436609	 -0.126394
H	 5.247103	 -2.746416	 1.101390
H	 5.062584	 -2.344670	 -0.575913
C	 3.475324	 -4.538016	 -0.405696
O	 5.645308	 -5.416372	 -0.068735
C	 3.142513	 -5.197708	 -1.752249
H	 3.077758	 -3.530724	 -0.373804
H	 3.010537	 -5.105855	 0.398180
C	 3.906992	 -6.506058	 -1.962969
H	 2.073565	 -5.394231	 -1.800676
H	 3.371148	 -4.517137	 -2.568350
C	 3.584233	 -7.172245	 -3.299729
H	 3.675183	 -7.191428	 -1.151430
H	 4.975620	 -6.311267	 -1.903941
H	 2.526789	 -7.408725	 -3.374670
H	 3.837980	 -6.523738	 -4.133494
H	 4.139105	 -8.097216	 -3.419829

10 6 3 2 F

12 15 17 21 F

