%nprocshared=1
%mem=2GB
#HF/6-31G* nosymm scf=tight 

Mol

0 1
H	 -0.803532	 1.877931	 0.899212
C	 -0.101672	 1.069196	 1.108084
N	 0.538815	 0.649616	 0.000000
O	 0.051307	 0.633687	 2.210871
C	 1.521968	 -0.411503	 0.000000
H	 0.318675	 1.097968	 -0.859536
H	 2.150599	 -0.357004	 -0.881901
H	 0.999455	 -1.354525	 0.000000
H	 2.150599	 -0.357004	 0.881901

1 2 3 6 F

