%nprocshared=1
%mem=2GB
#HF/6-31G* nosymm scf=tight 

Mol

0 1
H	 -0.384546	 -1.358117	 -0.672294
N	 -0.626943	 -0.667432	 -0.000092
C	 -1.979534	 -0.158301	 -0.000372
C	 0.325755	 -0.252874	 0.869779
H	 -2.520036	 -0.492100	 -0.879827
H	 -1.934183	 0.918568	 -0.005256
H	 -2.517873	 -0.484052	 0.883432
C	 1.674978	 -0.919497	 0.690344
O	 0.127974	 0.574320	 1.716447
H	 2.068026	 -0.726742	 -0.302990
H	 2.359261	 -0.526889	 1.427442
H	 1.590945	 -1.994555	 0.814939

4 2 3 5 F

