%nprocshared=1
%mem=2GB
#HF/6-31G* nosymm scf=tight 

Mol

0 1
H	 -2.798360	 -0.862255	 -0.071053
N	 -1.863561	 -0.715187	 0.256814
C	 -1.344686	 0.554728	 -0.219830
H	 -1.300452	 -1.461917	 -0.101532
C	 -2.057076	 1.697200	 0.473274
H	 -0.271358	 0.675537	 -0.066950
H	 -1.531874	 0.627503	 -1.286810
O	 -3.401966	 1.673112	 0.088855
H	 -1.974929	 1.591466	 1.554805
H	 -1.599487	 2.641378	 0.186261
C	 -4.161197	 2.727065	 0.589178
H	 -5.173445	 2.601897	 0.229476
H	 -4.172757	 2.727652	 1.677685
H	 -3.781535	 3.687786	 0.247594

8 5 3 6 F

5 8 11 13 F

11 8 5 3 F

