%nprocshared=1
%mem=2GB
#HF/6-31G* nosymm scf=tight 

Mol

0 1
H	 -3.489899	 1.228218	 -1.029938
O	 -3.452007	 0.283848	 -0.965577
C	 -3.181085	 -0.079926	 0.364119
C	 -1.765924	 0.277073	 0.805136
H	 -3.327791	 -1.152017	 0.410903
H	 -3.905698	 0.375695	 1.036898
C	 -1.020921	 1.164215	 -0.193096
H	 -1.811189	 0.773098	 1.775122
H	 -1.213278	 -0.647462	 0.963370
C	 -0.704119	 0.451707	 -1.509586
H	 -0.101369	 1.518904	 0.262239
H	 -1.621278	 2.049234	 -0.397314
C	 -1.912902	 -0.287182	 -2.090081
H	 -0.335139	 1.181204	 -2.226599
H	 0.106990	 -0.257961	 -1.351226
C	 -2.390821	 -1.485429	 -1.261858
H	 -1.679778	 -0.619971	 -3.100328
H	 -2.737315	 0.416327	 -2.186175
C	 -3.748682	 -2.049445	 -1.684356
H	 -2.449192	 -1.181927	 -0.219376
H	 -1.642586	 -2.274358	 -1.305885
H	 -4.514965	 -1.279086	 -1.662059
H	 -4.061291	 -2.844438	 -1.014208
H	 -3.723243	 -2.461864	 -2.687565

20 16 13 17 F

17 13 10 7 F

13 10 7 11 F

11 7 4 3 F

1 2 3 5 F

