%nprocshared=1
%mem=2GB
#HF/6-31G* nosymm scf=tight 

Mol

0 1
H	 -0.177333	 2.458119	 0.579380
C	 0.669984	 1.784154	 0.713961
N	 0.538815	 0.649616	 0.000000
O	 1.590928	 2.060184	 1.424508
C	 1.521968	 -0.411503	 0.000000
H	 -0.279895	 0.543379	 -0.553816
H	 2.150599	 -0.357004	 -0.881901
H	 0.999455	 -1.354525	 0.000000
H	 2.150599	 -0.357004	 0.881901

1 2 3 6 F

