%nprocshared=1
%mem=2GB
#HF/6-31G* nosymm scf=tight 
prop=(read,field)

Mol

0 1
H	 2.262878	 1.121079	 -0.000009
N	 1.414593	 0.605055	 -0.000002
C	 1.291525	 -0.735343	 0.000014
C	 0.138071	 1.117058	 -0.000034
H	 2.141098	 -1.387496	 0.000022
N	 0.058566	 -1.111720	 0.000007
H	 -0.055081	 2.168218	 -0.000065
C	 -0.685485	 0.045291	 -0.000005
C	 -2.180827	 0.006449	 0.000021
H	 -2.551635	 -0.517237	 -0.874923
H	 -2.596880	 1.007965	 -0.000223
H	 -2.551718	 -0.516914	 0.875175

@grid.dat /N
