%nprocshared=1
%mem=2GB
#HF/6-31G* nosymm scf=tight 

Mol

0 1
H	 -1.367966	 0.069849	 -1.630278
C	 -0.778805	 -0.484033	 -0.928144
C	 -0.773667	 -1.867295	 -0.922020
C	 0.000000	 0.183220	 0.000000
H	 -1.371642	 -2.404452	 -1.634659
C	 0.000000	 -2.555744	 0.000000
N	 0.000000	 1.642018	 0.000000
C	 0.778805	 -0.484034	 0.928144
H	 0.000000	 -3.630640	 0.000000
C	 0.773667	 -1.867295	 0.922020
O	 1.057097	 2.196749	 0.000000
O	 -1.057097	 2.196749	 0.000000
H	 1.367966	 0.069849	 1.630278
H	 1.371642	 -2.404452	 1.634659
