%nprocshared=1
%mem=2GB
#HF/6-31G* nosymm scf=tight 

Mol

0 1
H	 -3.161837	 0.500524	 -0.000234
C	 -2.367097	 -0.232926	 -0.000000
O	 -1.158440	 0.455814	 -0.000122
H	 -2.468853	 -0.861886	 -0.882833
H	 -2.468942	 -0.861421	 0.883154
C	 -1.058687	 1.440634	 0.983775
C	 0.290062	 2.126972	 0.855398
H	 -1.163773	 0.994393	 1.973585
H	 -1.865126	 2.166542	 0.871432
C	 1.442182	 1.246135	 1.336673
H	 0.438193	 2.403160	 -0.184043
H	 0.261537	 3.051304	 1.424166
H	 1.503505	 0.325331	 0.763276
H	 2.391786	 1.760531	 1.234230
H	 1.325247	 0.977433	 2.382870

6 3 2 4 F

11 7 6 8 F

