%nprocshared=8
%mem=2GB
#B3LYP/6-31G* nosymm scf=tight
# opt=ModRedundant  EmpiricalDispersion=GD3

Mol

1 1
C	 1.113067	 0.686201	 -2.323274
C	 2.277193	 1.001517	 -1.597704
C	 3.331457	 1.648252	 -2.234870
C	 3.228594	 1.990415	 -3.586747
C	 2.071503	 1.682650	 -4.308999
C	 1.014350	 1.027704	 -3.685146
C	 -0.000000	 -0.000000	 -1.658508
H	 2.378554	 0.699633	 -0.559037
H	 4.236396	 1.876348	 -1.681163
H	 4.052390	 2.498281	 -4.078748
H	 1.989779	 1.962064	 -5.354361
H	 0.101039	 0.829026	 -4.238887
N	 -0.712589	 -0.905950	 -2.322235
N	 -0.294690	 0.284968	 -0.393196
H	 -0.991148	 -0.224685	 0.137809
H	 0.135699	 1.081835	 0.057416
H	 -1.377189	 -1.485970	 -1.827091
H	 -0.673431	 -1.006470	 -3.329771

1 7 13 17 F
