%nprocshared=1
%mem=2GB
#HF/6-31G* nosymm scf=tight 

Mol

0 1
O	 0.778793	 0.813739	 -1.884503
C	 0.140502	 1.681556	 -1.381988
C	 -0.547057	 1.602079	 -0.040780
O	 -0.054281	 2.863688	 -1.952602
C	 0.338167	 1.028300	 1.061263
H	 -0.887793	 2.603164	 0.209181
H	 -1.447274	 1.007839	 -0.172089
C	 1.673632	 1.764873	 1.176855
H	 0.514453	 -0.025170	 0.867280
H	 -0.191537	 1.075989	 2.007646
C	 2.633144	 1.428097	 0.036275
H	 1.496377	 2.838363	 1.193450
H	 2.143227	 1.519039	 2.127179
H	 2.205959	 1.694345	 -0.926159
H	 3.571589	 1.963311	 0.141839
H	 2.857911	 0.365717	 0.014627
C	 1.065166	 3.726192	 -2.042424
H	 1.444631	 3.960080	 -1.058153
H	 0.709774	 4.621320	 -2.528624
H	 1.850932	 3.269393	 -2.626729

9 5 8 12 F

1 2 3 6 F

9 5 3 6 F

