%nprocshared=1
%mem=2GB
#HF/6-31G* nosymm scf=tight 
prop=(read,field)

Mol

0 1
H	 -0.495181	 -1.652395	 0.000910
N	 -0.626971	 -0.667363	 -0.000092
C	 -1.979741	 -0.158707	 0.000050
C	 0.469258	 0.129159	 0.000148
H	 -2.520273	 -0.492358	 -0.879443
H	 -1.934769	 0.918180	 -0.004428
H	 -2.517818	 -0.484987	 0.883818
C	 1.788905	 -0.616171	 -0.000037
O	 0.411070	 1.327837	 -0.000049
H	 1.872775	 -1.245706	 -0.880381
H	 2.595393	 0.101645	 0.003713
H	 1.870068	 -1.252102	 0.875943

@grid.dat /N
