%nprocshared=1
%mem=2GB
#HF/6-31G* nosymm scf=tight 

Mol

0 1
H	 -2.698709	 -0.000305	 0.034435
C	 -1.693833	 0.000034	 0.434417
O	 -0.828952	 -0.000968	 -0.659236
H	 -1.574200	 0.882896	 1.055746
H	 -1.574147	 -0.881698	 1.057355
C	 0.559449	 -0.000018	 -0.420814
C	 1.350706	 0.615680	 -1.573093
C	 0.921453	 0.618737	 0.927909
H	 0.802663	 -1.055019	 -0.377779
H	 1.032367	 0.189156	 -2.518231
H	 2.409369	 0.411873	 -1.446872
H	 1.230079	 1.693139	 -1.625003
H	 0.305538	 0.194894	 1.713697
H	 1.961401	 0.414293	 1.162808
H	 0.791708	 1.696221	 0.933871

6 3 2 1 F

