%nprocshared=1
%mem=2GB
#HF/6-31G* nosymm scf=tight 

Mol

0 1
H	 1.148083	 -1.049780	 0.784252
O	 1.319262	 -0.618148	 -0.041729
C	 0.709265	 0.639550	 -0.033818
C	 1.611500	 1.765798	 -0.465230
H	 0.377536	 0.808340	 0.984351
H	 -0.184936	 0.639882	 -0.656256
C	 2.907591	 1.663453	 -0.680728
H	 1.120689	 2.718104	 -0.594463
H	 3.432317	 0.735312	 -0.544178
H	 3.492118	 2.511632	 -0.988780

5 3 4 7 F

3 4 7 9 F

