%nprocshared=1
%mem=2GB
#HF/6-31G* nosymm scf=tight 

Mol

0 1
H	 -2.488061	 0.425986	 -1.015408
C	 -1.495381	 -0.007540	 -1.050973
C	 -0.603454	 0.661669	 0.000000
H	 -1.095131	 0.135425	 -2.047368
H	 -1.580039	 -1.071728	 -0.867184
C	 0.763625	 0.112519	 0.000000
H	 -0.533528	 1.728252	 -0.179110
H	 -1.015364	 0.528749	 0.993595
N	 1.813038	 -0.320305	 0.000000
