%nprocshared=1
%mem=2GB
#HF/6-31G* nosymm scf=tight 

Mol

0 1
H	 -2.646374	 -0.642757	 1.268656
C	 -2.083525	 -0.384536	 0.393091
O	 -0.807605	 -0.127164	 0.768327
F	 -2.118945	 -1.383102	 -0.486752
F	 -2.621877	 0.670592	 -0.209486
C	 0.209196	 -0.744284	 0.062661
C	 -0.047229	 -0.474428	 -1.414357
Cl	 0.233429	 -2.486019	 0.383579
H	 1.179062	 -0.352393	 0.314761
F	 -1.121056	 -1.118538	 -1.819523
F	 0.981399	 -0.914923	 -2.111011
F	 -0.201568	 0.802926	 -1.664399

10 7 6 9 F

9 6 3 2 F

