%nprocshared=1
%mem=2GB
#HF/6-31G* nosymm scf=tight 

Mol

0 1
H	 -2.646374	 -0.642757	 1.268656
C	 -2.083525	 -0.384536	 0.393091
O	 -0.807605	 -0.127164	 0.768327
F	 -2.118945	 -1.383102	 -0.486752
F	 -2.621877	 0.670592	 -0.209486
C	 -0.305413	 1.137617	 0.521708
C	 -1.309316	 2.133042	 1.088686
Cl	 -0.080114	 1.399699	 -1.215464
H	 0.642987	 1.302619	 1.002421
F	 -2.421779	 2.114723	 0.385672
F	 -0.795879	 3.344548	 1.010748
F	 -1.598199	 1.884452	 2.342769

10 7 6 9 F

9 6 3 2 F

