%nprocshared=1
%mem=2GB
#HF/6-31G* nosymm scf=tight 

Mol

0 1
H	 -1.269557	 1.446147	 0.463210
C	 -0.675946	 0.537116	 0.570807
N	 0.538815	 0.649616	 0.000000
O	 -1.094497	 -0.427929	 1.138884
C	 1.521968	 -0.411503	 0.000000
H	 0.764137	 1.510700	 -0.442772
H	 2.150599	 -0.357004	 -0.881901
H	 0.999455	 -1.354525	 0.000000
H	 2.150599	 -0.357004	 0.881901

1 2 3 6 F

