%nprocshared=1
%mem=2GB
#HF/6-31G* nosymm scf=tight 

Mol

0 1
H	 2.380739	 -1.844662	 -0.662409
N	 1.394827	 -1.673993	 -0.676928
C	 1.113269	 -0.374243	 -1.258380
C	 0.840103	 -1.789105	 0.659388
H	 1.528789	 -0.339240	 -2.259823
H	 1.550999	 0.444687	 -0.682718
C	 -0.393324	 -0.173464	 -1.323921
H	 1.057803	 -2.778714	 1.046752
H	 1.261289	 -1.055868	 1.351203
C	 -0.666320	 -1.587449	 0.592660
H	 -0.820201	 -0.900338	 -2.021436
H	 -0.611162	 0.818648	 -1.705767
N	 -0.975995	 -0.298722	 0.000000
H	 -1.081307	 -1.616469	 1.594903
H	 -1.111487	 -2.409055	 0.023548
C	 -2.393863	 -0.024976	 0.000000
H	 -2.854032	 -0.467193	 -0.876721
H	 -2.854032	 -0.467193	 0.876721
H	 -2.623281	 1.044943	 0.000000
