%nprocshared=1
%mem=2GB
#HF/6-31G* nosymm scf=tight 

Mol

0 1
H	 -1.324112	 1.395601	 -0.303720
C	 -0.743173	 0.474829	 -0.374269
N	 0.538815	 0.649616	 0.000000
O	 -1.228629	 -0.552205	 -0.746749
C	 1.521968	 -0.411503	 0.000000
H	 0.816284	 1.559016	 0.290319
H	 2.150599	 -0.357004	 -0.881901
H	 0.999455	 -1.354525	 0.000000
H	 2.150599	 -0.357004	 0.881901

1 2 3 6 F

