%nprocshared=1
%mem=2GB
#HF/6-31G* nosymm scf=tight 

Mol

0 1
H	 6.129575	 -0.358271	 1.399398
C	 5.970684	 -1.389626	 1.698701
C	 7.033746	 -2.308924	 1.098729
H	 5.991960	 -1.426122	 2.783854
H	 4.973535	 -1.677641	 1.376925
C	 6.834942	 -3.773376	 1.495806
H	 8.016186	 -1.977452	 1.418947
H	 7.011134	 -2.224278	 0.013365
C	 5.399091	 -4.268820	 1.322207
H	 7.497522	 -4.401856	 0.911304
H	 7.116424	 -3.900025	 2.538768
C	 4.964761	 -4.436609	 -0.126394
H	 5.287231	 -5.243780	 1.794129
H	 4.697274	 -3.613058	 1.832702
C	 3.475324	 -4.538016	 -0.405696
O	 5.760593	 -4.505380	 -1.014272
C	 3.142513	 -5.197708	 -1.752249
H	 3.077758	 -3.530724	 -0.373804
H	 3.010537	 -5.105855	 0.398180
C	 3.906992	 -6.506058	 -1.962969
H	 2.073565	 -5.394231	 -1.800676
H	 3.371148	 -4.517137	 -2.568350
C	 3.584233	 -7.172245	 -3.299729
H	 3.675183	 -7.191428	 -1.151430
H	 4.975620	 -6.311267	 -1.903941
H	 2.526789	 -7.408725	 -3.374670
H	 3.837980	 -6.523738	 -4.133494
H	 4.139105	 -8.097216	 -3.419829

10 6 3 2 F

12 15 17 21 F

