%nprocshared=1
%mem=2GB
#HF/6-31G* nosymm scf=tight 

Mol

0 1
O	 -2.324811	 1.361668	 -0.277141
C	 -2.105949	 0.203097	 -0.092081
C	 -0.889235	 -0.467034	 -0.705952
C	 -3.002726	 -0.644460	 0.782455
C	 0.168139	 0.575381	 -1.104036
H	 -1.219515	 -1.002899	 -1.589166
H	 -0.459588	 -1.186456	 -0.014676
C	 1.395662	 -0.064522	 -1.756973
H	 -0.295477	 1.286906	 -1.777963
H	 0.481263	 1.134339	 -0.223544
C	 2.512625	 0.924082	 -2.110683
H	 1.087287	 -0.594710	 -2.656156
H	 1.799442	 -0.816903	 -1.082634
C	 2.145004	 1.933536	 -3.199653
H	 3.379958	 0.356652	 -2.438476
H	 2.820253	 1.455405	 -1.212269
H	 1.823377	 1.429107	 -4.106754
H	 2.999236	 2.553764	 -3.452645
H	 1.344189	 2.595523	 -2.887789
H	 -3.496582	 -1.399307	 0.176174
H	 -3.747939	 -0.023774	 1.260148
H	 -2.421318	 -1.168775	 1.535358

6 3 5 8 F

3 5 8 12 F

12 8 11 15 F

