%nprocshared=1
%mem=2GB
#HF/6-31G* nosymm scf=tight 

Mol

0 1
H	 -2.646374	 -0.642757	 1.268656
C	 -2.083525	 -0.384536	 0.393091
O	 -0.807605	 -0.127164	 0.768327
F	 -2.118945	 -1.383102	 -0.486752
F	 -2.621877	 0.670592	 -0.209486
C	 -0.372786	 1.184756	 0.718467
C	 -1.399190	 2.022306	 1.470241
Cl	 -0.223967	 1.737191	 -0.957804
H	 0.584265	 1.317300	 1.192026
F	 -2.534896	 2.062142	 0.806369
F	 -0.944495	 3.254848	 1.577612
F	 -1.629950	 1.558561	 2.674261

10 7 6 9 F

9 6 3 2 F

