%nprocshared=1
%mem=2GB
#HF/6-31G* nosymm scf=tight 

Mol

0 1
H	 -2.646374	 -0.642757	 1.268656
C	 -2.083525	 -0.384536	 0.393091
O	 -0.807605	 -0.127164	 0.768327
F	 -2.118945	 -1.383102	 -0.486752
F	 -2.621877	 0.670592	 -0.209486
C	 0.084052	 0.273579	 -0.209957
C	 -0.566041	 1.430884	 -0.957075
Cl	 0.446236	 -1.059616	 -1.318392
H	 1.016471	 0.618040	 0.202009
F	 -1.598135	 1.005803	 -1.654376
F	 0.312816	 1.941108	 -1.796551
F	 -0.966053	 2.380383	 -0.146881

10 7 6 9 F

6 3 2 4 F

