%nprocshared=8
%mem=2GB
#B3LYP/6-31G* nosymm scf=tight
# opt=ModRedundant  EmpiricalDispersion=GD3

Mol

1 1
C	 -0.656959	 1.194247	 -1.116396
C	 0.017501	 2.429620	 -1.120939
C	 -0.612572	 3.559801	 -0.609646
C	 -1.905592	 3.464065	 -0.086043
C	 -2.576382	 2.237214	 -0.075895
C	 -1.960247	 1.101984	 -0.592955
C	 -0.000000	 -0.000000	 -1.658508
H	 1.004904	 2.517409	 -1.565423
H	 -0.100463	 4.516317	 -0.628444
H	 -2.391816	 4.347942	 0.315181
H	 -3.574372	 2.163952	 0.343846
H	 -2.468418	 0.143029	 -0.543924
N	 -0.712589	 -0.905950	 -2.322235
N	 1.307109	 -0.174792	 -1.485369
H	 1.822932	 -0.932498	 -1.917313
H	 1.815550	 0.423583	 -0.847624
H	 -1.377189	 -1.485970	 -1.827091
H	 -0.673431	 -1.006470	 -3.329771

1 7 13 17 F
