%nprocshared=8
%mem=2GB
#B3LYP/6-31G* nosymm scf=tight
# opt=ModRedundant  EmpiricalDispersion=GD3

Mol

1 1
C	 -0.000000	 -0.000000	 -0.191639
C	 1.158979	 -0.380770	 0.510391
C	 1.154374	 -0.374286	 1.901670
C	 -0.000000	 0.000000	 2.596333
C	 -1.154374	 0.374286	 1.901670
C	 -1.158979	 0.380771	 0.510391
C	 -0.000000	 -0.000000	 -1.658508
H	 2.070792	 -0.630949	 -0.024627
H	 2.052599	 -0.650840	 2.444112
H	 -0.000000	 0.000000	 3.681982
H	 -2.052599	 0.650839	 2.444112
H	 -2.070793	 0.630949	 -0.024627
N	 -0.712589	 -0.905950	 -2.322235
N	 0.712590	 0.905950	 -2.322235
H	 0.673432	 1.006470	 -3.329771
H	 1.377190	 1.485970	 -1.827091
H	 -1.377189	 -1.485970	 -1.827091
H	 -0.673431	 -1.006470	 -3.329771

2 1 7 13 F
