%nprocshared=1
%mem=2GB
#HF/6-31G* nosymm scf=tight 

Mol

0 1
H	 -1.748661	 -2.220942	 -0.005015
C	 -1.343207	 -1.225221	 -0.013879
N	 -0.055091	 -1.100174	 -0.261126
C	 -2.150779	 -0.125890	 0.222726
C	 0.449969	 0.122615	 -0.277109
H	 -3.200618	 -0.238980	 0.422496
N	 -1.660212	 1.097703	 0.209594
C	 -0.371804	 1.219904	 -0.038265
C	 1.928147	 0.267347	 -0.541394
H	 0.029131	 2.217482	 -0.051283
C	 2.618003	 1.180737	 0.477345
H	 2.378694	 -0.718829	 -0.504956
H	 2.080597	 0.652839	 -1.544554
H	 3.682636	 1.241141	 0.275091
H	 2.483746	 0.799145	 1.482751
H	 2.211137	 2.186392	 0.439556
