%nprocshared=1
%mem=2GB
#HF/6-31G* nosymm scf=tight 

Mol

0 1
H	 -1.337763	 -0.024860	 -0.263710
N	 -0.626943	 -0.667432	 -0.000092
C	 -0.662530	 -1.996471	 -0.566754
C	 0.325755	 -0.252874	 0.869779
H	 -1.595039	 -2.169258	 -1.093611
H	 -0.578257	 -2.708303	 0.238181
H	 0.160468	 -2.146917	 -1.257457
C	 1.674978	 -0.919497	 0.690344
O	 0.127974	 0.574320	 1.716447
H	 2.068026	 -0.726742	 -0.302990
H	 2.359261	 -0.526889	 1.427442
H	 1.590945	 -1.994555	 0.814939

4 2 3 5 F

