%nprocshared=1
%mem=2GB
#HF/6-31G* nosymm scf=tight 

Mol

0 1
H	 -3.518014	 0.027633	 0.753737
O	 -3.110592	 -0.228745	 -0.062285
C	 -1.776383	 -0.070618	 -0.007991
C	 -1.132503	 0.411679	 1.127707
C	 -1.046708	 -0.409452	 -1.140613
H	 -1.705491	 0.671982	 2.001341
C	 0.239274	 0.553264	 1.126155
H	 -1.566190	 -0.779260	 -2.004125
C	 0.324635	 -0.262276	 -1.126764
H	 0.749107	 0.924173	 1.995406
C	 0.984182	 0.218375	 0.000000
H	 0.890557	 -0.524708	 -2.004217
C	 2.452467	 0.370529	 0.000000
O	 3.228994	 -0.533774	 0.000000
H	 2.809473	 1.405765	 0.000000

5 3 2 1 F

