%nprocshared=1
%mem=2GB
#HF/6-31G* nosymm scf=tight 

Mol

0 1
H	 2.451652	 -2.178703	 0.543297
O	 2.773837	 -1.297590	 0.410870
C	 1.759943	 -0.431505	 0.213148
C	 2.021766	 0.918045	 0.427867
C	 0.501613	 -0.837889	 -0.186339
H	 3.007780	 1.208647	 0.738005
C	 1.024974	 1.853461	 0.242213
H	 0.272083	 -1.870868	 -0.358958
C	 -0.475960	 0.127942	 -0.363373
H	 1.235819	 2.893254	 0.410236
C	 -0.247827	 1.470225	 -0.158974
N	 -1.805383	 -0.307336	 -0.786048
H	 -1.031310	 2.184096	 -0.307123
O	 -1.932557	 -1.443133	 -1.132206
O	 -2.685807	 0.496701	 -0.760761

11 9 12 14 F

