%nprocshared=1
%mem=2GB
#HF/6-31G* nosymm scf=tight 
prop=(read,field)

Mol

0 1
O	 0.391069	 1.299046	 0.000133
C	 0.503041	 0.111753	 0.000005
C	 -0.702288	 -0.811857	 -0.000075
C	 1.863345	 -0.554352	 0.000030
C	 -2.036147	 -0.074991	 -0.000119
H	 -0.621631	 -1.466021	 -0.866294
H	 -0.621715	 -1.466077	 0.866106
H	 -2.129714	 0.558119	 -0.873982
H	 -2.858672	 -0.782599	 -0.000183
H	 -2.129800	 0.558061	 0.873777
H	 1.974434	 -1.189263	 -0.874166
H	 2.638734	 0.199061	 -0.000196
H	 1.974526	 -1.188514	 0.874727

@grid.dat /N
