%nprocshared=1
%mem=2GB
#HF/6-31G* nosymm scf=tight 

Mol

0 1
O	 -0.806752	 -1.114546	 1.082146
C	 -0.561929	 -0.074560	 0.531515
C	 -1.597472	 1.034011	 0.503089
N	 0.623947	 0.147590	 -0.102813
H	 -1.868528	 1.298769	 -0.513038
H	 -2.472791	 0.671041	 1.019920
H	 -1.237628	 1.928840	 0.999450
C	 1.436992	 -0.993583	 -0.475047
C	 1.300902	 1.425566	 -0.130283
H	 2.246817	 -0.665875	 -1.117548
H	 0.830342	 -1.709396	 -1.001856
H	 1.867585	 -1.474366	 0.400658
H	 1.851092	 1.515168	 -1.059423
H	 0.602438	 2.245926	 -0.084545
H	 2.009060	 1.527946	 0.689987

2 4 8 10 F

