%nprocshared=1
%mem=2GB
#HF/6-31G* nosymm scf=tight 

Mol

0 1
O	 -0.488453	 0.057968	 1.132425
C	 -0.451170	 -1.129930	 1.097049
C	 0.801727	 -1.959116	 0.945507
O	 -1.528589	 -1.897310	 1.185968
C	 1.124911	 -2.785238	 2.184071
H	 1.613075	 -1.280220	 0.700432
H	 0.669725	 -2.590969	 0.072237
H	 1.272053	 -2.149836	 3.048928
H	 2.030738	 -3.360307	 2.024106
H	 0.320287	 -3.472711	 2.414906
C	 -2.430361	 -1.643468	 2.258242
C	 -1.731358	 -2.037800	 3.542068
H	 -3.333723	 -2.217273	 2.102455
H	 -2.697262	 -0.595453	 2.253920
H	 -1.465829	 -3.088736	 3.528427
H	 -2.386233	 -1.859951	 4.388919
H	 -0.825886	 -1.458046	 3.680852

2 4 11 13 F

4 2 3 6 F

