%nprocshared=1
%mem=2GB
#HF/6-31G* nosymm scf=tight 

Mol

0 1
O	 -0.488453	 0.057968	 1.132425
C	 -0.451170	 -1.129930	 1.097049
C	 0.801727	 -1.959116	 0.945507
O	 -1.528589	 -1.897310	 1.185968
C	 1.124911	 -2.785238	 2.184071
H	 1.613075	 -1.280220	 0.700432
H	 0.669725	 -2.590969	 0.072237
H	 1.272053	 -2.149836	 3.048928
H	 2.030738	 -3.360307	 2.024106
H	 0.320287	 -3.472711	 2.414906
C	 -1.498968	 -2.966509	 2.125828
C	 -0.501424	 -3.987297	 1.620645
H	 -2.491602	 -3.386820	 2.213002
H	 -1.216642	 -2.576891	 3.094373
H	 -0.795495	 -4.363722	 0.647513
H	 -0.447084	 -4.823420	 2.310279
H	 0.486508	 -3.549472	 1.533727

2 4 11 13 F

4 2 3 6 F

