%nprocshared=1
%mem=2GB
#HF/6-31G* nosymm scf=tight 

Mol

0 1
H	 -3.042581	 -0.665861	 0.004336
O	 -2.245037	 -1.176175	 0.000806
C	 -1.162163	 -0.365336	 0.001020
C	 -0.329003	 -0.238001	 -1.095776
C	 -0.905280	 0.349413	 1.164624
H	 -0.525304	 -0.793416	 -1.997414
C	 0.764598	 0.612673	 -1.016397
H	 -1.571912	 0.224669	 1.998385
C	 0.184774	 1.198446	 1.242331
H	 1.415940	 0.712286	 -1.866615
C	 1.025415	 1.325473	 0.136367
C	 0.451543	 1.994408	 2.498667
H	 1.878632	 1.979040	 0.183272
H	 1.506168	 1.982747	 2.752476
H	 -0.101943	 1.599527	 3.342222
H	 0.158759	 3.032249	 2.366348
