%nprocshared=1
%mem=2GB
#HF/6-31G* nosymm scf=tight 

Mol

0 1
H	 -0.885355	 -3.090168	 0.234863
C	 -1.161232	 -2.609296	 -0.711423
C	 -0.414791	 -1.338711	 -1.026665
O	 -1.995337	 -3.093266	 -1.405809
C	 -0.558097	 -0.297372	 0.091132
H	 -0.779684	 -0.956007	 -1.972641
H	 0.637277	 -1.593474	 -1.149462
C	 -1.850991	 0.512573	 -0.019058
H	 -0.527822	 -0.799848	 1.055173
H	 0.293577	 0.380148	 0.069309
C	 -3.096943	 -0.368295	 -0.099594
H	 -1.800724	 1.150330	 -0.898172
H	 -1.931651	 1.177355	 0.838044
H	 -3.060452	 -1.020287	 -0.967456
H	 -3.996858	 0.233488	 -0.175704
H	 -3.191959	 -0.995686	 0.782074

9 5 8 12 F

4 2 3 6 F

