%nprocshared=1
%mem=2GB
#HF/6-31G* nosymm scf=tight 

Mol

0 1
H	 0.797770	 -5.170832	 -2.733098
C	 0.915330	 -4.410422	 -1.967784
C	 -0.254776	 -3.427801	 -1.984241
H	 0.989529	 -4.916382	 -1.009282
H	 1.859573	 -3.904286	 -2.147998
C	 -0.127859	 -2.340084	 -0.922563
H	 -1.190122	 -3.956067	 -1.827868
H	 -0.321379	 -2.963892	 -2.966964
N	 -1.268658	 -1.446027	 -0.948991
H	 -0.087621	 -2.801641	 0.060448
H	 0.820899	 -1.809045	 -1.053843
C	 -1.217365	 -0.386708	 0.039277
H	 -1.355622	 -1.044301	 -1.863373
C	 -2.452633	 0.504241	 -0.042481
H	 -1.172857	 -0.848333	 1.022069
H	 -0.315698	 0.227728	 -0.054795
C	 -3.758029	 -0.289423	 -0.010781
H	 -2.394220	 1.093569	 -0.952170
H	 -2.440793	 1.210787	 0.785871
H	 -3.816659	 -0.981993	 -0.845726
H	 -4.617837	 0.370165	 -0.069296
H	 -3.847478	 -0.867502	 0.904682

15 12 14 18 F

