%nprocshared=1
%mem=2GB
#HF/6-31G* nosymm scf=tight 

Mol

0 1
H	 -3.161837	 0.500524	 -0.000234
C	 -2.367097	 -0.232926	 -0.000000
O	 -1.158440	 0.455814	 -0.000122
H	 -2.468853	 -0.861886	 -0.882833
H	 -2.468942	 -0.861421	 0.883154
C	 -0.980911	 1.303780	 -1.094340
C	 0.369192	 1.988218	 -0.970132
H	 -1.779887	 2.045680	 -1.127840
H	 -1.032530	 0.733976	 -2.023084
C	 0.650314	 2.941167	 -2.131054
H	 0.396682	 2.526827	 -0.027897
H	 1.138854	 1.224354	 -0.916930
H	 -0.096073	 3.728683	 -2.187159
H	 1.619529	 3.414959	 -2.017083
H	 0.650680	 2.417043	 -3.082736

11 7 6 8 F

8 6 3 2 F

