%nprocshared=1
%mem=2GB
#HF/6-31G* nosymm scf=tight 

Mol

0 1
H	 -2.798360	 -0.862255	 -0.071053
N	 -1.863561	 -0.715187	 0.256814
C	 -1.344686	 0.554728	 -0.219830
H	 -1.300452	 -1.461917	 -0.101532
C	 0.081427	 0.741154	 0.254071
H	 -1.362155	 0.656231	 -1.305829
H	 -1.952773	 1.354456	 0.191809
O	 0.791194	 1.415031	 -0.745533
H	 0.098684	 1.317544	 1.178795
H	 0.532282	 -0.229641	 0.447772
C	 2.146903	 1.579171	 -0.475938
H	 2.585580	 2.108880	 -1.310605
H	 2.304857	 2.160171	 0.430965
H	 2.648791	 0.620403	 -0.363326

6 3 2 4 F

5 8 11 13 F

11 8 5 3 F

