%nprocshared=1
%mem=2GB
#HF/6-31G* nosymm scf=tight 

Mol

0 1
O	 -0.119763	 1.089334	 -0.937201
C	 0.788116	 1.716284	 -1.379704
C	 2.234608	 1.285561	 -1.381876
O	 0.640172	 2.906476	 -1.947763
C	 2.438365	 -0.152105	 -1.850112
H	 2.780698	 1.985048	 -2.008946
H	 2.617850	 1.429928	 -0.375396
C	 1.788937	 -0.417461	 -3.209115
H	 2.031048	 -0.831098	 -1.107650
H	 3.501705	 -0.364174	 -1.901517
C	 0.264014	 -0.511927	 -3.134646
H	 2.065077	 0.373417	 -3.905000
H	 2.184869	 -1.341715	 -3.627294
C	 -0.377846	 0.708538	 -2.476065
H	 -0.013930	 -1.407788	 -2.583900
H	 -0.137677	 -0.634231	 -4.138053
H	 -0.021779	 0.837664	 -1.457852
H	 -1.458445	 0.611909	 -2.438369
H	 -0.146099	 1.617495	 -3.024154
C	 1.792514	 3.724689	 -2.034891
H	 2.180449	 3.940881	 -1.049855
H	 1.472688	 4.634305	 -2.518819
H	 2.560106	 3.239076	 -2.620117

15 11 8 12 F

9 5 8 12 F

1 2 3 6 F

9 5 3 6 F

