%nprocshared=1
%mem=2GB
#HF/6-31G* nosymm scf=tight 

Mol

0 1
H	 -2.698709	 -0.000305	 0.034435
C	 -1.693833	 0.000034	 0.434417
O	 -0.828952	 -0.000968	 -0.659236
H	 -1.574200	 0.882896	 1.055746
H	 -1.574147	 -0.881698	 1.057355
C	 0.559449	 -0.000018	 -0.420814
C	 1.161544	 -1.403077	 -0.463503
C	 1.307561	 0.980413	 -1.321948
H	 0.634191	 0.362213	 0.597633
H	 0.576252	 -2.082325	 0.146910
H	 2.175090	 -1.383880	 -0.075441
H	 1.206287	 -1.800597	 -1.472533
H	 0.822942	 1.950649	 -1.306292
H	 2.327268	 1.103456	 -0.970490
H	 1.356457	 0.637934	 -2.350616

6 3 2 1 F

