%nprocshared=1
%mem=2GB
#HF/6-31G* nosymm scf=tight 

Mol

0 1
H	 -2.494981	 -2.320061	 0.017232
C	 -1.940169	 -1.400546	 0.009979
C	 -2.590141	 -0.178088	 0.001118
C	 -0.562021	 -1.426175	 0.009487
H	 -3.664504	 -0.137027	 0.001452
C	 -1.863206	 0.997586	 -0.008138
H	 -0.029680	 -2.354260	 0.016366
C	 0.154804	 -0.237046	 -0.000077
H	 -2.386154	 1.935977	 -0.014735
C	 -0.469895	 1.014632	 -0.009240
N	 1.611208	 -0.370857	 -0.000034
C	 0.222974	 2.359532	 -0.019592
O	 2.274126	 0.622059	 -0.008063
O	 2.068510	 -1.474748	 0.007823
H	 0.850583	 2.476621	 -0.892247
H	 -0.524323	 3.143061	 -0.021558
H	 0.856723	 2.486929	 0.847158
