%nprocshared=1
%mem=2GB
#HF/6-31G* nosymm scf=tight 
prop=(read,field)

Mol

0 1
H	 2.176871	 -0.646158	 -0.217325
O	 1.337499	 -0.537405	 0.205931
C	 0.702315	 0.627451	 -0.264544
C	 -0.714987	 0.596148	 0.266387
H	 0.682325	 0.642396	 -1.350929
H	 1.215944	 1.520229	 0.085680
O	 -1.405993	 -0.526765	 -0.195820
H	 -1.257450	 1.468655	 -0.075599
H	 -0.688969	 0.618253	 1.353696
H	 -0.890584	 -1.292862	 0.022039

@grid.dat /N
