%nprocshared=1
%mem=2GB
#HF/6-31G* nosymm scf=tight 

Mol

0 1
O	 -1.276010	 1.052711	 -0.768302
C	 -1.204840	 0.067374	 -0.106123
C	 -2.388195	 -0.672128	 0.458071
O	 -0.067104	 -0.527208	 0.221609
H	 -2.388023	 -1.694060	 0.097175
H	 -3.300579	 -0.174919	 0.164318
H	 -2.315377	 -0.706351	 1.539059
C	 0.376476	 -0.479124	 1.585006
C	 -0.796051	 -0.958788	 2.422078
C	 0.817482	 0.934238	 1.932235
H	 1.210746	 -1.157496	 1.686559
H	 -1.088332	 -1.961765	 2.132500
H	 -0.525221	 -0.970497	 3.472719
H	 -1.651134	 -0.303468	 2.295413
H	 1.132752	 0.982463	 2.969681
H	 1.650279	 1.239933	 1.311771
H	 -0.001435	 1.632404	 1.791000

11 8 4 2 F

