%nprocshared=1
%mem=2GB
#HF/6-31G* nosymm scf=tight 

Mol

0 1
O	 -0.554697	 0.017831	 0.804354
C	 -0.451170	 -1.129930	 1.097049
C	 0.801727	 -1.959116	 0.945507
O	 -1.444666	 -1.846834	 1.603629
C	 1.124911	 -2.785238	 2.184071
H	 1.613075	 -1.280220	 0.700432
H	 0.669725	 -2.590969	 0.072237
H	 1.272053	 -2.149836	 3.048928
H	 2.030738	 -3.360307	 2.024106
H	 0.320287	 -3.472711	 2.414906
C	 -2.693584	 -1.192425	 1.802004
C	 -2.507848	 -0.189801	 2.921181
H	 -3.443722	 -1.931605	 2.047952
H	 -2.990240	 -0.711786	 0.879739
H	 -2.205593	 -0.686246	 3.836245
H	 -3.440029	 0.334024	 3.106370
H	 -1.749679	 0.540344	 2.661711

2 4 11 13 F

11 4 2 3 F

