%nprocshared=1
%mem=2GB
#HF/6-31G* nosymm scf=tight 

Mol

0 1
H	 1.148083	 -1.049780	 0.784252
O	 1.319262	 -0.618148	 -0.041729
C	 0.709265	 0.639550	 -0.033818
C	 1.367396	 1.638938	 0.880876
H	 -0.315109	 0.476821	 0.281429
H	 0.662731	 1.053427	 -1.040578
C	 2.326623	 1.366435	 1.742498
H	 0.993830	 2.647825	 0.796744
H	 2.710041	 0.369840	 1.865867
H	 2.752603	 2.131857	 2.365912

5 3 4 7 F

3 4 7 9 F

