%nprocshared=1
%mem=2GB
#HF/6-31G* nosymm scf=tight 

Mol

0 1
H	 1.265709	 -2.294013	 -2.136956
C	 1.247992	 -1.333874	 -1.628963
C	 0.094065	 -1.281286	 -0.632566
H	 1.134589	 -0.552320	 -2.371982
H	 2.211668	 -1.200038	 -1.149432
N	 -0.000257	 -0.000071	 0.054619
H	 -0.827189	 -1.445278	 -1.177338
H	 0.175844	 -2.106578	 0.080800
C	 -1.363055	 0.315058	 0.462241
C	 0.950973	 0.115288	 1.152121
C	 -2.412078	 -0.285320	 -0.468531
H	 -1.482241	 1.391144	 0.451970
H	 -1.549931	 -0.001174	 1.492681
C	 1.369056	 1.557206	 1.422894
H	 1.838803	 -0.448416	 0.894925
H	 0.556728	 -0.339486	 2.065653
H	 -2.262839	 0.075384	 -1.480151
H	 -2.369300	 -1.368867	 -0.491760
H	 -3.410332	 -0.003975	 -0.144961
H	 1.814604	 1.989242	 0.533812
H	 0.530202	 2.181284	 1.711687
H	 2.097584	 1.595069	 2.227966
