%nprocshared=1
%mem=2GB
#HF/6-31G* nosymm scf=tight 

Mol

0 1
H	 -0.034002	 2.590920	 0.149850
C	 0.846609	 1.947801	 0.184658
N	 0.538815	 0.649616	 0.000000
O	 1.943334	 2.386697	 0.368433
C	 1.521968	 -0.411503	 0.000000
H	 -0.416902	 0.416438	 -0.143238
H	 2.150599	 -0.357004	 -0.881901
H	 0.999455	 -1.354525	 0.000000
H	 2.150599	 -0.357004	 0.881901

1 2 3 6 F

