%nprocshared=1
%mem=2GB
#HF/6-31G* nosymm scf=tight 

Mol

0 1
H	 2.312801	 -2.191910	 1.284840
C	 1.811353	 -1.642456	 0.493079
C	 0.731142	 -0.737070	 1.076637
H	 1.369085	 -2.354646	 -0.194632
H	 2.568217	 -1.083984	 -0.047107
N	 -0.000257	 -0.000071	 0.054619
H	 0.028896	 -1.358640	 1.617820
H	 1.168174	 -0.058906	 1.815408
C	 -1.363055	 0.315058	 0.462241
C	 0.726565	 1.172008	 -0.415079
C	 -2.412078	 -0.285320	 -0.468531
H	 -1.482241	 1.391144	 0.451970
H	 -1.549931	 -0.001174	 1.492681
C	 0.384923	 1.541513	 -1.855214
H	 1.786802	 0.958267	 -0.366424
H	 0.559391	 2.029977	 0.242743
H	 -2.262839	 0.075384	 -1.480151
H	 -2.369300	 -1.368867	 -0.491760
H	 -3.410332	 -0.003975	 -0.144961
H	 0.606837	 0.710804	 -2.515752
H	 -0.663003	 1.793339	 -1.977626
H	 0.967533	 2.401486	 -2.173554
