%nprocshared=1
%mem=2GB
#HF/6-31G* nosymm scf=tight 

Mol

0 1
O	 1.138601	 1.394811	 -0.803527
C	 0.140502	 1.681556	 -1.381988
C	 -1.055558	 0.780359	 -1.569544
O	 -0.054281	 2.863688	 -1.952602
C	 -1.490435	 0.075539	 -0.288352
H	 -1.859135	 1.387939	 -1.976809
H	 -0.803713	 0.064097	 -2.346909
C	 -1.721636	 1.054382	 0.863941
H	 -0.736689	 -0.653169	 -0.006652
H	 -2.398084	 -0.488348	 -0.479946
C	 -0.417809	 1.603606	 1.441341
H	 -2.339842	 1.881180	 0.519991
H	 -2.285206	 0.560421	 1.652903
H	 0.153023	 2.133459	 0.684333
H	 -0.609720	 2.294840	 2.255984
H	 0.207757	 0.803339	 1.825891
C	 1.065166	 3.726192	 -2.042424
H	 1.444631	 3.960080	 -1.058153
H	 0.709774	 4.621320	 -2.528624
H	 1.850932	 3.269393	 -2.626729

9 5 8 12 F

1 2 3 6 F

9 5 3 6 F

