%nprocshared=1
%mem=2GB
#HF/6-31G* nosymm scf=tight 

Mol

0 1
H	 -3.855507	 -1.396950	 1.310901
C	 -2.783801	 -1.419700	 1.223082
C	 -2.041380	 -2.263260	 2.035710
C	 -2.149469	 -0.605652	 0.297942
H	 -2.534578	 -2.894075	 2.752784
C	 -0.663419	 -2.291954	 1.922209
H	 -2.726631	 0.047612	 -0.331134
C	 -0.770219	 -0.632700	 0.182570
H	 -0.072895	 -2.938422	 2.542720
C	 -0.023295	 -1.477045	 0.995556
H	 -0.275185	 -0.004460	 -0.531977
C	 1.463013	 -1.545621	 0.912827
O	 1.893539	 -2.451768	 0.047871
O	 2.197557	 -0.861068	 1.553677
C	 3.276620	 -2.437968	 -0.258018
H	 3.546800	 -3.314917	 -0.827894
H	 3.787572	 -2.435832	 0.692128
H	 3.530332	 -1.552966	 -0.823104

12 13 15 16 F

10 12 13 15 F

