%nprocshared=1
%mem=2GB
#HF/6-31G* nosymm scf=tight 

Mol

0 1
H	 -0.185418	 2.450629	 -0.592514
C	 0.660021	 1.774923	 -0.730146
N	 0.538815	 0.649616	 0.000000
O	 1.571051	 2.041767	 -1.456801
C	 1.521968	 -0.411503	 0.000000
H	 -0.272167	 0.550539	 0.566371
H	 2.150599	 -0.357004	 -0.881901
H	 0.999455	 -1.354525	 0.000000
H	 2.150599	 -0.357004	 0.881901

1 2 3 6 F

