%nprocshared=1
%mem=2GB
#HF/6-31G* nosymm scf=tight 

Mol

0 1
H	 -3.457960	 0.166880	 1.449720
O	 -3.367910	 -0.300316	 2.267454
C	 -3.043259	 -1.643282	 2.012310
C	 -1.609705	 -1.833855	 1.529264
H	 -3.184960	 -2.163733	 2.950780
H	 -3.740919	 -2.074362	 1.295219
C	 -1.314720	 -1.174099	 0.179978
H	 -0.935821	 -1.437562	 2.284379
H	 -1.414703	 -2.902721	 1.459510
C	 -1.253967	 0.353364	 0.269335
H	 -2.079256	 -1.465608	 -0.534776
H	 -0.365926	 -1.547304	 -0.205831
C	 -0.416226	 0.897541	 1.432264
H	 -0.870047	 0.751811	 -0.668050
H	 -2.268110	 0.734888	 0.367588
C	 -0.986134	 0.614337	 2.824916
H	 0.578828	 0.461905	 1.369771
H	 -0.283754	 1.971270	 1.308191
C	 -0.064326	 1.082881	 3.952823
H	 -1.164772	 -0.454938	 2.929078
H	 -1.953617	 1.097374	 2.938733
C	 -0.633759	 0.807172	 5.344007
H	 0.901881	 0.592594	 3.855093
H	 0.123129	 2.149215	 3.844766
H	 -0.801927	 -0.255401	 5.495276
H	 0.042994	 1.148580	 6.121234
H	 -1.583778	 1.314537	 5.486866

14 10 7 4 F

14 10 13 16 F

8 4 3 2 F

10 13 16 20 F

20 16 19 22 F

4 3 2 1 F

