%nprocshared=1
%mem=2GB
#HF/6-31G* nosymm scf=tight 

Mol

0 1
O	 -1.276010	 1.052711	 -0.768302
C	 -1.204840	 0.067374	 -0.106123
C	 -2.388195	 -0.672128	 0.458071
O	 -0.067104	 -0.527208	 0.221609
H	 -2.388023	 -1.694060	 0.097175
H	 -3.300579	 -0.174919	 0.164318
H	 -2.315377	 -0.706351	 1.539059
C	 1.170111	 0.034140	 -0.238951
C	 2.156850	 -0.139031	 0.902077
C	 0.960409	 1.488857	 -0.629423
H	 1.491295	 -0.532711	 -1.100362
H	 2.264972	 -1.186640	 1.159123
H	 3.130155	 0.246046	 0.616201
H	 1.821386	 0.396497	 1.783738
H	 1.898168	 1.926122	 -0.957179
H	 0.248355	 1.569786	 -1.440844
H	 0.594638	 2.059935	 0.217978

8 4 2 1 F

