%nprocshared=1
%mem=2GB
#HF/6-31G* nosymm scf=tight 

Mol

0 1
H	 -2.679583	 -0.577042	 1.373253
C	 -2.635761	 -0.568286	 0.285989
O	 -1.329886	 -0.418175	 -0.169526
H	 -3.004501	 -1.513904	 -0.086810
H	 -3.281621	 0.229304	 -0.078899
C	 -0.719715	 0.768384	 0.229244
C	 0.719720	 0.768376	 -0.229267
H	 -1.235260	 1.624260	 -0.208234
H	 -0.751240	 0.875120	 1.311657
O	 1.392611	 -0.295398	 0.366430
H	 0.750534	 0.687200	 -1.313918
H	 1.185043	 1.714359	 0.050526
C	 2.706965	 -0.449871	 -0.062409
H	 2.756559	 -0.644779	 -1.131878
H	 3.305899	 0.433456	 0.155466
H	 3.125548	 -1.294566	 0.467107

7 10 13 14 F

2 3 6 7 F

