%nprocshared=1
%mem=2GB
#HF/6-31G* nosymm scf=tight 

Mol

0 1
H	 -1.093429	 -1.525462	 0.183839
N	 -0.626943	 -0.667432	 -0.000092
C	 -1.001971	 0.074803	 -1.182107
C	 0.325755	 -0.252874	 0.869779
H	 -1.649999	 -0.514999	 -1.821794
H	 -0.103725	 0.320304	 -1.724889
H	 -1.515842	 0.993060	 -0.917963
C	 1.674978	 -0.919497	 0.690344
O	 0.127974	 0.574320	 1.716447
H	 2.068026	 -0.726742	 -0.302990
H	 2.359261	 -0.526889	 1.427442
H	 1.590945	 -1.994555	 0.814939

4 2 3 5 F

