%nprocshared=1
%mem=2GB
#HF/6-31G* nosymm scf=tight 

Mol

0 1
H	 7.476755	 -1.635074	 1.420545
C	 6.987698	 -1.804799	 0.466323
C	 5.843687	 -0.815422	 0.248268
H	 7.738930	 -1.708977	 -0.312015
H	 6.628984	 -2.830479	 0.456200
C	 5.127319	 -1.031638	 -1.086604
H	 6.232472	 0.196840	 0.290376
H	 5.125785	 -0.911088	 1.061383
C	 4.762573	 -2.490866	 -1.360245
H	 4.224832	 -0.431413	 -1.116440
H	 5.767083	 -0.682130	 -1.893814
C	 3.638805	 -3.030279	 -0.487651
H	 4.433005	 -2.599889	 -2.392364
H	 5.633734	 -3.134527	 -1.260460
C	 3.475324	 -4.538016	 -0.405696
O	 2.897284	 -2.300900	 0.099340
C	 3.142513	 -5.197708	 -1.752249
H	 2.687077	 -4.732644	 0.311591
H	 4.396443	 -4.964989	 -0.013370
C	 3.906992	 -6.506058	 -1.962969
H	 2.073565	 -5.394231	 -1.800676
H	 3.371148	 -4.517137	 -2.568350
C	 3.584233	 -7.172245	 -3.299729
H	 3.675183	 -7.191428	 -1.151430
H	 4.975620	 -6.311267	 -1.903941
H	 2.526789	 -7.408725	 -3.374670
H	 3.837980	 -6.523738	 -4.133494
H	 4.139105	 -8.097216	 -3.419829

10 6 3 2 F

16 12 15 17 F

