%nprocshared=1
%mem=2GB
#HF/6-31G* nosymm scf=tight 

Mol

0 1
H	 -1.293510	 1.368411	 1.958559
C	 -1.007494	 0.755919	 1.126421
C	 -1.926035	 0.445256	 0.069399
C	 0.230409	 0.252256	 1.040768
H	 -2.927843	 0.834907	 0.109358
C	 -1.545253	 -0.323004	 -0.961254
H	 0.976802	 0.437557	 1.789744
N	 0.640212	 -0.532897	 -0.000111
H	 -2.204134	 -0.575989	 -1.768861
C	 -0.198134	 -0.870913	 -1.054245
C	 2.010177	 -1.032049	 0.000042
O	 0.182998	 -1.565119	 -1.963653
H	 2.187698	 -1.635381	 -0.882279
H	 2.677579	 -0.189247	 -0.001871
H	 2.188882	 -1.632203	 0.884288
