%nprocshared=1
%mem=2GB
#HF/6-31G* nosymm scf=tight 

Mol

0 1
H	 -1.836216	 1.387520	 -0.000064
C	 -1.301823	 0.443321	 -0.000031
O	 -0.003969	 0.658512	 0.000451
O	 -1.829879	 -0.616434	 -0.000857
C	 0.747153	 0.141252	 -1.097477
C	 0.738055	 -1.367760	 -0.982941
H	 1.750673	 0.541575	 -1.052681
H	 0.293546	 0.477156	 -2.019813
H	 1.188817	 -1.685603	 -0.049762
H	 1.301209	 -1.802411	 -1.802191
H	 -0.275310	 -1.750496	 -1.021556

7 5 3 2 F

