%nprocshared=1
%mem=2GB
#HF/6-31G* nosymm scf=tight 

Mol

0 1
H	 -2.063000	 -0.744720	 -1.959298
C	 -1.450168	 -0.459726	 -1.127060
C	 -1.953768	 0.369099	 -0.070197
C	 -0.178425	 -0.870462	 -1.041127
H	 -2.971418	 0.715245	 -0.110381
C	 -1.168214	 0.712400	 0.960586
H	 0.273962	 -1.492544	 -1.789969
N	 0.640212	 -0.532897	 -0.000111
H	 -1.510072	 1.330008	 1.768081
C	 0.215607	 0.265280	 1.053882
C	 2.010177	 -1.032049	 0.000042
O	 0.953813	 0.551651	 1.963415
H	 2.187698	 -1.635381	 -0.882279
H	 2.677579	 -0.189247	 -0.001871
H	 2.188882	 -1.632203	 0.884288
