%nprocshared=1
%mem=2GB
#HF/6-31G* nosymm scf=tight 

Mol

0 1
H	 0.702082	 -1.741987	 1.005957
N	 0.096999	 -0.961154	 0.841183
C	 -1.032669	 -1.350511	 0.015741
H	 0.633878	 -0.262601	 0.364850
C	 -0.566587	 -1.638182	 -1.396048
H	 -1.566210	 -2.226625	 0.386905
H	 -1.739941	 -0.527345	 -0.015009
O	 -0.088814	 -0.446451	 -1.951562
H	 0.222731	 -2.389529	 -1.386319
H	 -1.397097	 -2.022296	 -1.984218
C	 0.295968	 -0.548357	 -3.285402
H	 1.077210	 -1.293847	 -3.345427
H	 -0.534823	 -0.858547	 -3.916710
H	 0.680852	 0.397273	 -3.661511

8 5 3 6 F

6 3 2 4 F

11 8 5 3 F

