%nprocshared=1
%mem=2GB
#HF/6-31G* nosymm scf=tight 

Mol

0 1
H	 -3.489899	 1.228218	 -1.029938
O	 -3.452007	 0.283848	 -0.965577
C	 -3.181085	 -0.079926	 0.364119
C	 -1.765924	 0.277073	 0.805136
H	 -3.327791	 -1.152017	 0.410903
H	 -3.905698	 0.375695	 1.036898
C	 -1.377840	 1.724187	 0.498915
H	 -1.669810	 0.089353	 1.874942
H	 -1.072541	 -0.404066	 0.314738
C	 -1.255888	 2.008828	 -0.999513
H	 -0.438863	 1.953724	 0.993229
H	 -2.121860	 2.389958	 0.933169
C	 -2.449524	 1.484256	 -1.802098
H	 -1.150358	 3.080799	 -1.148379
H	 -0.341414	 1.556167	 -1.380878
C	 -2.573419	 -0.043193	 -1.843402
H	 -2.394505	 1.866979	 -2.820033
H	 -3.362756	 1.892808	 -1.374420
C	 -3.901222	 -0.558620	 -2.401686
H	 -2.448515	 -0.426071	 -0.833406
H	 -1.752248	 -0.454935	 -2.426798
H	 -4.741982	 -0.152995	 -1.845153
H	 -3.953357	 -1.641039	 -2.334696
H	 -4.034900	 -0.291181	 -3.444649

20 16 13 17 F

17 13 10 7 F

13 10 7 11 F

11 7 4 3 F

1 2 3 5 F

