%nprocshared=1
%mem=2GB
#HF/6-31G* nosymm scf=tight 

Mol

0 1
H	 -2.646374	 -0.642757	 1.268656
C	 -2.083525	 -0.384536	 0.393091
O	 -0.807605	 -0.127164	 0.768327
F	 -2.118945	 -1.383102	 -0.486752
F	 -2.621877	 0.670592	 -0.209486
C	 0.084052	 0.273579	 -0.209957
C	 1.397891	 -0.446890	 0.063743
Cl	 0.315642	 2.029185	 -0.172129
H	 -0.247066	 0.009245	 -1.199028
F	 1.949063	 0.006713	 1.169452
F	 2.226974	 -0.210905	 -0.933439
F	 1.237897	 -1.743231	 0.172718

10 7 6 9 F

6 3 2 4 F

