%nprocshared=24
%mem=2GB
#HF/6-31G* nosymm scf=tight 

Mol

0 1
H	 -2.277911	 -2.065616	 3.002910
C	 -2.347598	 -1.516296	 2.084187
C	 -1.271134	 -0.975404	 1.562018
H	 -3.307907	 -1.423980	 1.612811
O	 -0.088820	 -0.934487	 2.230837
H	 -1.254509	 -0.552507	 0.573040
C	 1.075857	 -0.772473	 1.496583
C	 1.375804	 -1.987551	 0.648108
H	 1.936994	 -0.579740	 2.126657
H	 0.932799	 0.067601	 0.833035
F	 0.270940	 -2.376022	 0.028292
F	 2.284988	 -1.727844	 -0.276970
F	 1.813767	 -2.998844	 1.369125

11 8 7 9 F

3 5 7 9 F

6 3 2 1 F

