%nprocshared=1
%mem=2GB
#HF/6-31G* nosymm scf=tight 

Mol

0 1
H	 -0.821032	 -1.655889	 0.000000
O	 -1.037828	 -0.728600	 0.000000
C	 0.100509	 -0.036935	 0.000000
C	 1.258505	 -0.866162	 0.476793
O	 0.154418	 1.098283	 -0.342924
H	 1.062699	 -1.221985	 1.481664
H	 2.159377	 -0.271715	 0.462153
H	 1.373515	 -1.733523	 -0.162873
