%nprocshared=1
%mem=2GB
#HF/6-31G* nosymm scf=tight 

Mol

0 1
H	 2.451652	 -2.178703	 0.543297
O	 2.773837	 -1.297590	 0.410870
C	 1.759943	 -0.431505	 0.213148
C	 0.495154	 -0.819803	 0.643815
C	 1.939015	 0.798406	 -0.389667
H	 0.381847	 -1.780635	 1.109457
C	 -0.583091	 0.022889	 0.469682
H	 2.902133	 1.123100	 -0.730993
C	 0.834544	 1.619779	 -0.548751
H	 -1.556019	 -0.284887	 0.805157
C	 -0.428958	 1.264032	 -0.133352
N	 1.029492	 2.919797	 -1.187056
H	 -1.255725	 1.928628	 -0.275378
O	 2.151758	 3.283381	 -1.372421
O	 0.056850	 3.541931	 -1.485687

11 9 12 14 F

