%nprocshared=1
%mem=2GB
#HF/6-31G* nosymm scf=tight opt=ModRedundant

Mol

0 1
H	 -1.142000	 -0.804000	 0.325000
N	 -0.744000	 0.000000	 -0.120000
C	 0.702000	 0.000000	 0.017000
H	 -1.142000	 0.804000	 0.325000
H	 1.108000	 -0.874000	 -0.481000
H	 1.108000	 0.874000	 -0.480000
H	 1.064000	 -0.000000	 1.046000
