%nprocshared=1
%mem=2GB
#HF/6-31G* nosymm scf=tight 

Mol

0 1
H	 6.450578	 -7.854317	 2.409210
C	 6.440012	 -7.457214	 1.398903
C	 7.258408	 -6.170304	 1.302645
H	 6.838164	 -8.222059	 0.738729
H	 5.403366	 -7.286683	 1.121261
C	 7.258831	 -5.579380	 -0.108958
H	 8.279280	 -6.370965	 1.611120
H	 6.857326	 -5.436235	 1.999759
C	 5.869458	 -5.494355	 -0.741161
H	 7.697616	 -4.588079	 -0.088125
H	 7.889173	 -6.191444	 -0.750119
C	 4.964761	 -4.436609	 -0.126394
H	 5.961057	 -5.247601	 -1.797803
H	 5.367283	 -6.458635	 -0.707106
C	 3.475324	 -4.538016	 -0.405696
O	 5.404379	 -3.546089	 0.537018
C	 3.142513	 -5.197708	 -1.752249
H	 3.077758	 -3.530724	 -0.373804
H	 3.010537	 -5.105855	 0.398180
C	 3.906992	 -6.506058	 -1.962969
H	 2.073565	 -5.394231	 -1.800676
H	 3.371148	 -4.517137	 -2.568350
C	 3.584233	 -7.172245	 -3.299729
H	 3.675183	 -7.191428	 -1.151430
H	 4.975620	 -6.311267	 -1.903941
H	 2.526789	 -7.408725	 -3.374670
H	 3.837980	 -6.523738	 -4.133494
H	 4.139105	 -8.097216	 -3.419829

10 6 3 2 F

12 15 17 21 F

