%nprocshared=1
%mem=2GB
#HF/6-31G* nosymm scf=tight 

Mol

0 1
H	 -2.798360	 -0.862255	 -0.071053
N	 -1.863561	 -0.715187	 0.256814
C	 -1.344686	 0.554728	 -0.219830
H	 -1.300452	 -1.461917	 -0.101532
C	 -0.873568	 0.415838	 -1.652272
H	 -2.068237	 1.369785	 -0.173361
H	 -0.496711	 0.836492	 0.396877
O	 0.212886	 -0.465224	 -1.673148
H	 -1.678949	 0.031922	 -2.278058
H	 -0.577066	 1.389617	 -2.035775
C	 0.802804	 -0.619948	 -2.924399
H	 1.621862	 -1.318002	 -2.816874
H	 0.096214	 -1.016735	 -3.651222
H	 1.190961	 0.324368	 -3.300445

8 5 3 6 F

5 8 11 13 F

11 8 5 3 F

