%nprocshared=1
%mem=2GB
#HF/6-31G* nosymm scf=tight 

Mol

0 1
H	 1.535431	 -1.882367	 2.224774
O	 1.225164	 -1.746153	 1.334849
C	 0.236083	 -0.854046	 1.373516
C	 -0.318135	 -0.576402	 0.000164
O	 -0.132386	 -0.362123	 2.389999
C	 -1.454360	 0.441875	 -0.000474
H	 0.508784	 -0.244926	 -0.622196
H	 -0.640040	 -1.526582	 -0.417615
C	 -2.826123	 -0.230780	 0.000056
H	 -1.357605	 1.085198	 -0.868380
H	 -1.357504	 1.086451	 0.866496
H	 -2.959731	 -0.858053	 -0.876869
H	 -3.619374	 0.509403	 -0.000080
H	 -2.959371	 -0.857318	 0.877556

2 3 4 7 F

1 2 3 5 F

