%nprocshared=1
%mem=2GB
#HF/6-31G* nosymm scf=tight 
prop=(read,field)

Mol

0 1
H	 -2.036051	 -1.271800	 0.000000
C	 -1.130686	 -0.690249	 -0.000000
N	 0.000066	 -1.373227	 -0.000000
C	 -1.190148	 0.693523	 0.000000
C	 1.130704	 -0.690156	 -0.000000
H	 -2.139595	 1.196000	 0.000000
C	 -0.000046	 1.399670	 0.000000
H	 2.036065	 -1.271571	 0.000000
C	 1.190111	 0.693617	 0.000000
H	 -0.000091	 2.475090	 0.000000
H	 2.139527	 1.196148	 0.000000

@grid.dat /N
