%nprocshared=1
%mem=2GB
#HF/6-31G* nosymm scf=tight 

Mol

0 1
H	 1.148083	 -1.049780	 0.784252
O	 1.319262	 -0.618148	 -0.041729
C	 0.709265	 0.639550	 -0.033818
C	 1.651808	 1.780882	 0.244665
H	 -0.053267	 0.600959	 0.735765
H	 0.192257	 0.824828	 -0.974775
C	 2.909434	 1.656176	 0.618281
H	 1.225012	 2.764204	 0.120541
H	 3.361969	 0.692930	 0.769277
H	 3.527032	 2.517314	 0.799913

5 3 4 7 F

3 4 7 9 F

