%nprocshared=1
%mem=2GB
#HF/6-31G* nosymm scf=tight 

Mol

0 1
H	 3.328143	 -1.889556	 -0.954833
C	 2.411729	 -2.470771	 -0.943676
C	 1.183624	 -1.561540	 -0.939292
H	 2.419747	 -3.115360	 -1.818129
H	 2.435698	 -3.107551	 -0.063799
C	 -0.127859	 -2.340084	 -0.922563
H	 1.191643	 -0.916521	 -1.812376
H	 1.223439	 -0.907099	 -0.070088
N	 -1.268658	 -1.446027	 -0.948991
H	 -0.179587	 -2.974092	 -1.803654
H	 -0.144367	 -3.011249	 -0.057321
C	 -1.217365	 -0.386708	 0.039277
H	 -1.355622	 -1.044301	 -1.863373
C	 -2.452633	 0.504241	 -0.042481
H	 -1.172857	 -0.848333	 1.022069
H	 -0.315698	 0.227728	 -0.054795
C	 -3.758029	 -0.289423	 -0.010781
H	 -2.394220	 1.093569	 -0.952170
H	 -2.440793	 1.210787	 0.785871
H	 -3.816659	 -0.981993	 -0.845726
H	 -4.617837	 0.370165	 -0.069296
H	 -3.847478	 -0.867502	 0.904682

15 12 14 18 F

