%nprocshared=1
%mem=2GB
#HF/6-31G* nosymm scf=tight 

Mol

0 1
H	 -0.216825	 0.021369	 -3.357402
C	 0.374198	 0.036393	 -2.447010
C	 -0.521757	 -0.028637	 -1.217342
H	 0.969602	 0.942322	 -2.434777
H	 1.053364	 -0.811668	 -2.481329
N	 0.263400	 0.031178	 0.000000
H	 -1.199035	 0.820290	 -1.219355
H	 -1.147901	 -0.924895	 -1.265384
C	 -0.521757	 -0.028637	 1.217342
H	 0.935769	 -0.712709	 0.000000
C	 0.034161	 -1.075841	 2.173044
H	 -0.480163	 0.948552	 1.689313
H	 -1.578767	 -0.233580	 1.021454
H	 1.069746	 -0.860422	 2.410788
H	 -0.536649	 -1.098905	 3.096078
H	 -0.010144	 -2.069110	 1.733606
