%nprocshared=1
%mem=2GB
#HF/6-31G* nosymm scf=tight 

Mol

0 1
H	 0.240300	 -5.841526	 -1.620355
C	 0.503956	 -4.904761	 -1.140035
C	 -0.655232	 -3.910898	 -1.199051
H	 0.778419	 -5.127103	 -0.112679
H	 1.385728	 -4.514308	 -1.640306
C	 -0.325230	 -2.578145	 -0.534772
H	 -1.532941	 -4.329637	 -0.716688
H	 -0.926769	 -3.735996	 -2.238795
N	 -1.456822	 -1.673418	 -0.584021
H	 -0.079463	 -2.749455	 0.509840
H	 0.570717	 -2.150407	 -0.997046
C	 -1.217365	 -0.386708	 0.039277
H	 -1.731152	 -1.535131	 -1.538306
C	 -2.452633	 0.504241	 -0.042481
H	 -0.970152	 -0.561705	 1.082934
H	 -0.359715	 0.135181	 -0.398275
C	 -3.758029	 -0.289423	 -0.010781
H	 -2.394220	 1.093569	 -0.952170
H	 -2.440793	 1.210787	 0.785871
H	 -3.816659	 -0.981993	 -0.845726
H	 -4.617837	 0.370165	 -0.069296
H	 -3.847478	 -0.867502	 0.904682

10 6 9 12 F

