%nprocshared=1
%mem=2GB
#HF/6-31G* nosymm scf=tight 

Mol

0 1
H	 -0.000158	 1.970498	 0.756846
O	 -0.000074	 1.880206	 -0.189275
C	 -0.000015	 0.544847	 -0.545111
C	 1.372122	 0.150815	 -1.081734
C	 -1.146576	 0.265118	 -1.511107
H	 -0.178629	 -0.034711	 0.348373
F	 2.283614	 0.349671	 -0.153734
F	 1.423531	 -1.115000	 -1.438705
F	 1.696521	 0.889074	 -2.131180
F	 -2.292370	 0.557589	 -0.933912
F	 -1.188428	 -0.996542	 -1.883720
F	 -1.039265	 1.013017	 -2.597712

7 4 3 6 F

