%nprocshared=8
%mem=2GB
#B3LYP/6-31G* nosymm scf=tight
# opt=ModRedundant  EmpiricalDispersion=GD3

Mol

1 1
C	 -0.013265	 0.010505	 -0.191737
C	 0.025200	 1.234607	 0.501920
C	 0.007664	 1.238350	 1.893106
C	 -0.038477	 0.030472	 2.596050
C	 -0.072055	 -1.187355	 1.909759
C	 -0.064429	 -1.203540	 0.518572
C	 -0.000000	 -0.000000	 -1.658508
H	 0.017843	 2.176184	 -0.039944
H	 0.019669	 2.181895	 2.428935
H	 -0.048295	 0.038248	 3.681626
H	 -0.093870	 -2.123130	 2.458742
H	 -0.047394	 -2.152780	 -0.009528
N	 -0.712589	 -0.905950	 -2.322235
N	 0.724594	 0.896443	 -2.322147
H	 0.695221	 0.990001	 -3.330686
H	 1.388546	 1.475588	 -1.825113
H	 -1.377189	 -1.485970	 -1.827091
H	 -0.673431	 -1.006470	 -3.329771

1 7 13 17 F
