%nprocshared=1
%mem=2GB
#HF/6-31G* nosymm scf=tight 

Mol

0 1
O	 -0.682937	 1.318834	 -0.186099
C	 -0.860635	 0.152188	 -0.042321
C	 -2.173363	 -0.477127	 0.338347
O	 0.083258	 -0.765189	 -0.202595
H	 -2.477673	 -1.180929	 -0.427595
H	 -2.923125	 0.290956	 0.455536
H	 -2.058825	 -1.029004	 1.264191
C	 1.446825	 -0.353785	 -0.137562
C	 1.810138	 0.553905	 -1.298058
H	 2.080130	 -1.227446	 -0.109597
H	 1.527119	 0.170322	 0.803907
H	 2.828785	 0.910581	 -1.180288
H	 1.742586	 0.022773	 -2.239176
H	 1.149770	 1.413695	 -1.331075

10 8 4 2 F

