%nprocshared=1
%mem=2GB
#HF/6-31G* nosymm scf=tight 

Mol

0 1
H	 -0.216825	 0.021369	 -3.357402
C	 0.374198	 0.036393	 -2.447010
C	 -0.521757	 -0.028637	 -1.217342
H	 0.969602	 0.942322	 -2.434777
H	 1.053364	 -0.811668	 -2.481329
N	 0.263400	 0.031178	 0.000000
H	 -1.199035	 0.820290	 -1.219355
H	 -1.147901	 -0.924895	 -1.265384
C	 -0.521757	 -0.028637	 1.217342
H	 0.935769	 -0.712709	 0.000000
C	 -0.913141	 -1.463844	 1.542992
H	 0.083928	 0.372020	 2.024810
H	 -1.419757	 0.594636	 1.164707
H	 -0.029812	 -2.084650	 1.641446
H	 -1.475627	 -1.510435	 2.470238
H	 -1.535580	 -1.887024	 0.758683
