%nprocshared=1
%mem=2GB
#HF/6-31G* nosymm scf=tight 

Mol

0 1
O	 1.093212	 -0.290605	 0.381524
C	 0.028650	 0.075053	 -0.000277
C	 -1.233602	 -0.752807	 0.000328
O	 -0.191724	 1.288506	 -0.489018
C	 -2.501530	 0.091881	 0.000126
H	 -1.193807	 -1.406641	 -0.865785
H	 -1.193516	 -1.405779	 0.867015
H	 -2.545121	 0.729328	 -0.874513
H	 -3.377167	 -0.548497	 0.000561
H	 -2.544818	 0.730135	 0.874258
C	 0.915864	 2.169172	 -0.546154
H	 1.314233	 2.342969	 0.443042
H	 0.539693	 3.089488	 -0.964935
H	 1.693459	 1.761300	 -1.175803

11 4 2 3 F

