%nprocshared=1
%mem=2GB
#HF/6-31G* nosymm scf=tight 

Mol

0 1
H	 2.332609	 0.878551	 -1.051851
C	 2.357710	 0.000000	 -0.417167
C	 1.175432	 0.000000	 0.532082
H	 3.291263	 0.000000	 0.136880
H	 2.332609	 -0.878551	 -1.051851
O	 0.000000	 0.000000	 -0.221444
H	 1.206604	 0.877321	 1.177902
H	 1.206604	 -0.877321	 1.177902
C	 -1.175432	 0.000000	 0.532082
C	 -0.806543	 0.024748	 2.002511
H	 -1.767100	 -0.886264	 0.303579
H	 -1.783406	 0.868118	 0.278142
H	 -0.211211	 -0.844705	 2.257337
H	 -1.699736	 0.025392	 2.619517
H	 -0.227540	 0.912137	 2.231864
