%nprocshared=1
%mem=2GB
#HF/6-31G* nosymm scf=tight 

Mol

0 1
H	 0.458245	 -5.584002	 -2.054569
C	 0.717686	 -4.650713	 -1.565273
C	 -0.451675	 -3.667684	 -1.600072
H	 1.004851	 -4.883066	 -0.543620
H	 1.590422	 -4.245399	 -2.069554
C	 -0.127859	 -2.340084	 -0.922563
H	 -1.320256	 -4.101017	 -1.114092
H	 -0.735579	 -3.482583	 -2.634735
N	 -1.268658	 -1.446027	 -0.948991
H	 0.130293	 -2.521907	 0.117275
H	 0.759078	 -1.897820	 -1.388529
C	 -1.217365	 -0.386708	 0.039277
H	 -1.355622	 -1.044301	 -1.863373
C	 -2.452633	 0.504241	 -0.042481
H	 -1.172857	 -0.848333	 1.022069
H	 -0.315698	 0.227728	 -0.054795
C	 -3.758029	 -0.289423	 -0.010781
H	 -2.394220	 1.093569	 -0.952170
H	 -2.440793	 1.210787	 0.785871
H	 -3.816659	 -0.981993	 -0.845726
H	 -4.617837	 0.370165	 -0.069296
H	 -3.847478	 -0.867502	 0.904682

15 12 14 18 F

