%nprocshared=1
%mem=2GB
#HF/6-31G* nosymm scf=tight 

Mol

0 1
H	 -0.216825	 0.021369	 -3.357402
C	 0.374198	 0.036393	 -2.447010
C	 -0.521757	 -0.028637	 -1.217342
H	 0.969602	 0.942322	 -2.434777
H	 1.053364	 -0.811668	 -2.481329
N	 0.263400	 0.031178	 0.000000
H	 -1.199035	 0.820290	 -1.219355
H	 -1.147901	 -0.924895	 -1.265384
C	 -0.521757	 -0.028637	 1.217342
H	 0.935769	 -0.712709	 0.000000
C	 -0.124605	 -1.231203	 2.063010
H	 -0.337679	 0.883049	 1.777994
H	 -1.597419	 -0.058190	 1.018042
H	 0.931404	 -1.192174	 2.305260
H	 -0.692421	 -1.258172	 2.987783
H	 -0.313706	 -2.161406	 1.533281
