%nprocshared=1
%mem=2GB
#HF/6-31G* nosymm scf=tight 

Mol

0 1
H	 4.953296	 -5.012254	 2.978644
C	 4.257293	 -4.309501	 2.556149
C	 2.936285	 -4.306163	 2.978140
C	 4.683896	 -3.410228	 1.591655
H	 2.606740	 -5.004122	 3.726218
C	 2.041952	 -3.402266	 2.434431
H	 5.708295	 -3.414299	 1.265776
C	 3.790422	 -2.504508	 1.045992
H	 1.016050	 -3.385298	 2.748930
C	 2.465791	 -2.498619	 1.466803
H	 4.116204	 -1.806829	 0.299379
C	 1.463013	 -1.545621	 0.912827
O	 1.970282	 -0.730723	 0.000018
O	 0.320765	 -1.511450	 1.248922
C	 3.377318	 -0.566646	 -0.000065
H	 3.695437	 -0.028981	 -0.881264
H	 3.789299	 -1.563704	 0.000236
H	 3.695516	 -0.028316	 0.880770

12 13 15 16 F

13 12 10 6 F

