%nprocshared=1
%mem=2GB
#HF/6-31G* nosymm scf=tight 

Mol

0 1
H	 3.083879	 -1.346558	 0.395444
O	 2.172668	 -1.603300	 0.415122
C	 1.365383	 -0.540424	 0.207814
C	 1.792829	 0.767245	 0.399116
C	 0.069962	 -0.790742	 -0.210104
H	 2.801360	 0.959864	 0.724382
C	 0.925487	 1.822748	 0.172618
H	 -0.261480	 -1.800334	 -0.358249
C	 -0.791998	 0.271652	 -0.434610
H	 1.267669	 2.830397	 0.324053
C	 -0.370864	 1.581818	 -0.245183
C	 -2.185058	 0.009807	 -0.883709
H	 -1.046248	 2.400170	 -0.421708
O	 -2.591797	 -1.050782	 -1.236214
H	 -2.844757	 0.882683	 -0.872138

11 9 12 14 F

