%nprocshared=1
%mem=2GB
#HF/6-31G* nosymm scf=tight 

Mol

0 1
H	 -1.638371	 2.541244	 0.185725
C	 -0.615930	 2.181805	 0.192230
C	 -0.603454	 0.661669	 0.000000
H	 -0.162487	 2.457189	 1.136684
H	 -0.073795	 2.677985	 -0.603594
C	 0.763625	 0.112519	 0.000000
H	 -1.159291	 0.170451	 0.790138
H	 -1.071160	 0.389847	 -0.939113
N	 1.813038	 -0.320305	 0.000000
