%nprocshared=1
%mem=2GB
#HF/6-31G* nosymm scf=tight 

Mol

0 1
O	 0.675460	 1.547581	 -0.328939
C	 0.140502	 1.681556	 -1.381988
C	 -0.400480	 0.564391	 -2.240577
O	 -0.054281	 2.863688	 -1.952602
C	 -1.234136	 -0.448979	 -1.462478
H	 -0.979436	 1.020025	 -3.039302
H	 0.447245	 0.087637	 -2.725164
C	 -2.355700	 0.213774	 -0.661092
H	 -0.586373	 -1.009040	 -0.795216
H	 -1.654025	 -1.173489	 -2.153333
C	 -1.841041	 0.950737	 0.574632
H	 -2.894338	 0.911956	 -1.298656
H	 -3.078736	 -0.540001	 -0.355948
H	 -1.141250	 1.734576	 0.299783
H	 -2.655662	 1.411545	 1.124473
H	 -1.327521	 0.272144	 1.249502
C	 1.065166	 3.726192	 -2.042424
H	 1.444631	 3.960080	 -1.058153
H	 0.709774	 4.621320	 -2.528624
H	 1.850932	 3.269393	 -2.626729

9 5 8 12 F

1 2 3 6 F

9 5 3 6 F

