%nprocshared=1
%mem=2GB
#HF/6-31G* nosymm scf=tight 

Mol

0 1
H	 -3.457960	 0.166880	 1.449720
O	 -3.367910	 -0.300316	 2.267454
C	 -3.043259	 -1.643282	 2.012310
C	 -1.609705	 -1.833855	 1.529264
H	 -3.184960	 -2.163733	 2.950780
H	 -3.740919	 -2.074362	 1.295219
C	 -1.482484	 -2.733047	 0.297137
H	 -1.185827	 -0.856603	 1.313226
H	 -1.029695	 -2.257416	 2.347525
C	 -1.831604	 -4.194357	 0.592950
H	 -0.467471	 -2.672822	 -0.085598
H	 -2.137559	 -2.361878	 -0.491185
C	 -3.125106	 -4.398716	 1.390089
H	 -1.895998	 -4.743860	 -0.344465
H	 -1.010138	 -4.640587	 1.149524
C	 -3.082455	 -3.882656	 2.831040
H	 -3.933443	 -3.894090	 0.864959
H	 -3.381870	 -5.456969	 1.393352
C	 -4.426435	 -4.012895	 3.550896
H	 -2.776913	 -2.837308	 2.829096
H	 -2.326627	 -4.419937	 3.398804
C	 -4.384939	 -3.504391	 4.991509
H	 -5.185925	 -3.465279	 2.997019
H	 -4.738037	 -5.055372	 3.545320
H	 -4.107815	 -2.454615	 5.028889
H	 -5.352048	 -3.608247	 5.473743
H	 -3.660096	 -4.057551	 5.582255

14 10 7 4 F

14 10 13 16 F

10 7 4 8 F

10 13 16 20 F

20 16 19 22 F

4 3 2 1 F

