%nprocshared=1
%mem=2GB
#HF/6-31G* nosymm scf=tight 

Mol

0 1
H	 -1.836216	 1.387520	 -0.000064
C	 -1.301823	 0.443321	 -0.000031
O	 -0.003969	 0.658512	 0.000451
O	 -1.829879	 -0.616434	 -0.000857
C	 0.607513	 0.983778	 -1.247539
C	 0.553910	 -0.254613	 -2.115775
H	 1.624485	 1.302666	 -1.064788
H	 0.072294	 1.810834	 -1.693423
H	 1.088121	 -1.074705	 -1.649832
H	 1.011025	 -0.049402	 -3.078151
H	 -0.471535	 -0.564212	 -2.281604

7 5 3 2 F

