%nprocshared=1
%mem=2GB
#HF/6-31G* nosymm scf=tight 

Mol

0 1
O	 -1.276010	 1.052711	 -0.768302
C	 -1.204840	 0.067374	 -0.106123
C	 -2.388195	 -0.672128	 0.458071
O	 -0.067104	 -0.527208	 0.221609
H	 -2.388023	 -1.694060	 0.097175
H	 -3.300579	 -0.174919	 0.164318
H	 -2.315377	 -0.706351	 1.539059
C	 0.909521	 0.204853	 0.975410
C	 0.173398	 0.763070	 2.180443
C	 1.528133	 1.285395	 0.102259
H	 1.672995	 -0.490153	 1.292554
H	 -0.264975	 -0.037176	 2.765833
H	 0.859128	 1.315574	 2.814357
H	 -0.620669	 1.432887	 1.868262
H	 2.251704	 1.858041	 0.673694
H	 2.038277	 0.847882	 -0.746453
H	 0.762946	 1.964997	 -0.259179

11 8 4 2 F

