%nprocshared=1
%mem=2GB
#HF/6-31G* nosymm scf=tight opt=ModRedundant

Mol

0 1
H	 -1.927000	 1.392000	 0.000000
C	 -1.393000	 0.448000	 0.000000
O	 -0.095000	 0.663000	 -0.000000
O	 -1.921000	 -0.612000	 0.000000
C	 0.759000	 -0.480000	 -0.000000
C	 2.188000	 0.021000	 0.000000
H	 0.543000	 -1.077000	 -0.875000
H	 0.543000	 -1.078000	 0.875000
H	 2.384000	 0.623000	 -0.879000
H	 2.873000	 -0.821000	 -0.000000
H	 2.384000	 0.623000	 0.880000
