%nprocshared=1
%mem=2GB
#HF/6-31G* nosymm scf=tight 

Mol

0 1
H	 2.734370	 0.868716	 2.277273
O	 1.805768	 0.722208	 2.390592
C	 1.181709	 0.623749	 1.196755
C	 1.861827	 0.731053	 -0.009574
C	 -0.185356	 0.408064	 1.203464
H	 2.925713	 0.898904	 -0.012574
C	 1.175182	 0.622719	 -1.207260
H	 -0.711903	 0.324990	 2.134551
C	 -0.865228	 0.300799	 0.000000
H	 1.712312	 0.707463	 -2.134454
C	 -0.191076	 0.407162	 -1.209949
C	 -2.333960	 0.069074	 0.000000
H	 -0.726418	 0.322700	 -2.139078
O	 -2.847347	 -1.003763	 0.000000
H	 -2.943845	 0.977528	 0.000000

4 3 2 1 F

