%nprocshared=1
%mem=2GB
#HF/6-31G* nosymm scf=tight 

Mol

0 1
H	 -2.387681	 -1.151568	 2.014874
C	 -1.877631	 -0.719505	 1.174311
C	 -2.581242	 -0.081175	 0.167130
C	 -0.504123	 -0.795667	 1.086990
H	 -3.652951	 -0.011216	 0.216997
C	 -1.911610	 0.470466	 -0.908980
H	 0.068790	 -1.281925	 1.848634
C	 0.154804	 -0.237046	 -0.000077
H	 -2.475615	 0.961736	 -1.680114
C	 -0.524994	 0.414604	 -1.034609
N	 1.611208	 -0.370857	 -0.000034
C	 0.102923	 1.052174	 -2.254509
O	 2.274126	 0.622059	 -0.008063
O	 2.068510	 -1.474748	 0.007823
H	 0.653417	 0.330032	 -2.841532
H	 -0.677075	 1.479585	 -2.872003
H	 0.796908	 1.834998	 -1.981207
