%nprocshared=1
%mem=2GB
#HF/6-31G* nosymm scf=tight 

Mol

0 1
O	 -0.488453	 0.057968	 1.132425
C	 -0.451170	 -1.129930	 1.097049
C	 0.801727	 -1.959116	 0.945507
O	 -1.528589	 -1.897310	 1.185968
C	 1.124911	 -2.785238	 2.184071
H	 1.613075	 -1.280220	 0.700432
H	 0.669725	 -2.590969	 0.072237
H	 1.272053	 -2.149836	 3.048928
H	 2.030738	 -3.360307	 2.024106
H	 0.320287	 -3.472711	 2.414906
C	 -2.627457	 -1.589670	 0.334353
C	 -3.212621	 -0.275169	 0.805502
H	 -3.350950	 -2.391653	 0.388810
H	 -2.275881	 -1.527799	 -0.686508
H	 -3.555052	 -0.352087	 1.831164
H	 -4.056996	 -0.001741	 0.181070
H	 -2.474187	 0.516591	 0.749943

2 4 11 13 F

4 2 3 6 F

