%nprocshared=1
%mem=2GB
#HF/6-31G* nosymm scf=tight 

Mol

0 1
H	 -0.602624	 -0.076271	 -2.174462
O	 -0.693165	 -1.018407	 -2.279191
C	 -0.424494	 -1.592694	 -1.107166
C	 -0.318135	 -0.576402	 0.000164
O	 -0.292714	 -2.767802	 -0.994247
C	 -1.454360	 0.441875	 -0.000474
H	 -0.278694	 -1.122640	 0.938818
H	 0.648115	 -0.089019	 -0.098941
C	 -2.826123	 -0.230780	 0.000056
H	 -1.357605	 1.085198	 -0.868380
H	 -1.357504	 1.086451	 0.866496
H	 -2.959731	 -0.858053	 -0.876869
H	 -3.619374	 0.509403	 -0.000080
H	 -2.959371	 -0.857318	 0.877556

7 4 6 10 F

2 3 4 7 F

