%nprocshared=1
%mem=2GB
#HF/6-31G* nosymm scf=tight 

Mol

0 1
H	 -1.836216	 1.387520	 -0.000064
C	 -1.301823	 0.443321	 -0.000031
O	 -0.003969	 0.658512	 0.000451
O	 -1.829879	 -0.616434	 -0.000857
C	 0.606854	 0.982160	 1.249184
C	 0.119382	 2.357666	 1.650026
H	 1.681173	 0.955858	 1.128907
H	 0.332924	 0.230706	 1.976902
H	 0.395671	 3.095856	 0.905866
H	 0.562465	 2.643225	 2.598375
H	 -0.959105	 2.367361	 1.758005

7 5 3 2 F

