%nprocshared=1
%mem=2GB
#HF/6-31G* nosymm scf=tight 

Mol

0 1
H	 1.148083	 -1.049780	 0.784252
O	 1.319262	 -0.618148	 -0.041729
C	 0.709265	 0.639550	 -0.033818
C	 -0.731618	 0.623890	 0.404579
H	 0.777076	 1.014908	 -1.048565
H	 1.265711	 1.335604	 0.593001
C	 -1.452642	 -0.459442	 0.612620
H	 -1.174915	 1.597538	 0.545927
H	 -1.049355	 -1.444689	 0.464034
H	 -2.479071	 -0.396506	 0.926403

5 3 4 7 F

3 4 7 9 F

