%nprocshared=1
%mem=2GB
#HF/6-31G* nosymm scf=tight opt=ModRedundant

Mol

0 1
H	 0.685000	 1.158000	 0.892000
C	 0.570000	 0.568000	 -0.000000
Cl	 -1.065000	 -0.114000	 -0.000000
F	 1.478000	 -0.420000	 -0.000000
H	 0.685000	 1.158000	 -0.892000
