%nprocshared=1
%mem=2GB
#HF/6-31G* nosymm scf=tight 

Mol

0 1
H	 -2.646374	 -0.642757	 1.268656
C	 -2.083525	 -0.384536	 0.393091
O	 -0.807605	 -0.127164	 0.768327
F	 -2.118945	 -1.383102	 -0.486752
F	 -2.621877	 0.670592	 -0.209486
C	 -0.489903	 1.170286	 1.126625
C	 -1.518953	 1.611032	 2.159562
Cl	 -0.523775	 2.240999	 -0.283920
H	 0.487734	 1.245072	 1.569804
F	 -2.703861	 1.740456	 1.601544
F	 -1.162155	 2.785663	 2.639535
F	 -1.612027	 0.765841	 3.157040

10 7 6 9 F

9 6 3 2 F

