%nprocshared=1
%mem=2GB
#HF/6-31G* nosymm scf=tight 

Mol

0 1
H	 -2.798360	 -0.862255	 -0.071053
N	 -1.863561	 -0.715187	 0.256814
C	 -1.344686	 0.554728	 -0.219830
H	 -1.300452	 -1.461917	 -0.101532
C	 0.018572	 0.353338	 -0.847605
H	 -1.989803	 1.046548	 -0.949172
H	 -1.239283	 1.226201	 0.626808
O	 0.904520	 -0.062816	 0.151895
H	 -0.036766	 -0.397790	 -1.635250
H	 0.359482	 1.287234	 -1.289028
C	 2.222811	 -0.204566	 -0.271883
H	 2.807711	 -0.528190	 0.578327
H	 2.309192	 -0.948915	 -1.061480
H	 2.625627	 0.736892	 -0.639585

8 5 3 6 F

5 8 11 13 F

11 8 5 3 F

