%nprocshared=1
%mem=2GB
#HF/6-31G* nosymm scf=tight 

Mol

0 1
O	 -2.042549	 -1.228399	 -0.269030
C	 -1.653912	 -0.146171	 0.050137
C	 -0.332303	 0.024011	 0.778412
C	 -2.438579	 1.106236	 -0.272369
C	 -0.348909	 -0.714329	 2.126170
H	 0.489106	 -0.339915	 0.167489
H	 -0.184252	 1.084820	 0.947790
C	 -1.309452	 -0.080141	 3.133241
H	 0.654086	 -0.730966	 2.549026
H	 -0.629843	 -1.748488	 1.950865
C	 -2.686589	 0.207255	 2.536497
H	 -1.417561	 -0.737488	 3.993260
H	 -0.876610	 0.844896	 3.506768
H	 -3.160175	 -0.704749	 2.184335
H	 -2.613757	 0.888461	 1.693824
H	 -3.345058	 0.659022	 3.271584
H	 -3.277823	 0.863061	 -0.908988
H	 -1.806773	 1.843019	 -0.759671
H	 -2.802853	 1.554979	 0.648059

11 8 5 9 F

9 5 3 2 F

