%nprocshared=8
%mem=2GB
#B3LYP/6-31G* nosymm scf=tight
# opt=ModRedundant  EmpiricalDispersion=GD3

Mol

1 1
C	 -0.328723	 0.310975	 -0.263180
C	 -0.206460	 1.631109	 0.209431
C	 -0.524183	 1.920776	 1.532634
C	 -0.953502	 0.902023	 2.388819
C	 -1.071476	 -0.411266	 1.923437
C	 -0.765634	 -0.711500	 0.599791
C	 -0.000000	 -0.000000	 -1.658508
H	 0.085421	 2.432942	 -0.462958
H	 -0.447078	 2.941202	 1.893632
H	 -1.196794	 1.132180	 3.421520
H	 -1.391701	 -1.201697	 2.594413
H	 -0.817721	 -1.740179	 0.254331
N	 -0.712589	 -0.905950	 -2.322235
N	 1.010070	 0.624531	 -2.257494
H	 1.218677	 0.513953	 -3.242898
H	 1.649289	 1.187510	 -1.711841
H	 -1.377189	 -1.485970	 -1.827091
H	 -0.673431	 -1.006470	 -3.329771

1 7 13 17 F
