%nprocshared=1
%mem=2GB
#HF/6-31G* nosymm scf=tight 

Mol

0 1
O	 -1.276010	 1.052711	 -0.768302
C	 -1.204840	 0.067374	 -0.106123
C	 -2.388195	 -0.672128	 0.458071
O	 -0.067104	 -0.527208	 0.221609
H	 -2.388023	 -1.694060	 0.097175
H	 -3.300579	 -0.174919	 0.164318
H	 -2.315377	 -0.706351	 1.539059
C	 0.085314	 -1.057980	 1.545610
C	 -1.125880	 -1.942663	 1.782113
C	 0.194995	 0.081686	 2.546498
H	 0.989264	 -1.648775	 1.564151
H	 -1.175308	 -2.730747	 1.039329
H	 -1.068374	 -2.400339	 2.764232
H	 -2.040948	 -1.362798	 1.726802
H	 0.287455	 -0.313405	 3.553161
H	 1.066468	 0.690311	 2.341351
H	 -0.689837	 0.708892	 2.505353

11 8 4 2 F

