%nprocshared=1
%mem=2GB
#HF/6-31G* nosymm scf=tight 

Mol

0 1
H	 1.519624	 -1.900955	 0.897379
C	 0.612158	 -1.349099	 1.081808
O	 0.464886	 -0.454746	 -0.000158
H	 0.702763	 -0.814172	 2.019714
H	 -0.222028	 -2.038682	 1.133479
C	 -0.590998	 0.343045	 0.000118
O	 -1.699443	 -0.054298	 0.000227
H	 -0.340329	 1.404368	 0.000207
