%nprocshared=1
%mem=2GB
#HF/6-31G* nosymm scf=tight 

Mol

0 1
H	 -0.216825	 0.021369	 -3.357402
C	 0.374198	 0.036393	 -2.447010
C	 -0.521757	 -0.028637	 -1.217342
H	 0.969602	 0.942322	 -2.434777
H	 1.053364	 -0.811668	 -2.481329
N	 0.263400	 0.031178	 0.000000
H	 -1.199035	 0.820290	 -1.219355
H	 -1.147901	 -0.924895	 -1.265384
C	 -0.521757	 -0.028637	 1.217342
H	 0.935769	 -0.712709	 0.000000
C	 0.158158	 0.740340	 2.342258
H	 -1.490969	 0.415792	 1.011190
H	 -0.714229	 -1.056931	 1.538605
H	 0.315818	 1.773481	 2.053941
H	 -0.444996	 0.719620	 3.244547
H	 1.125694	 0.307225	 2.582958
