%nprocshared=1
%mem=2GB
#HF/6-31G* nosymm scf=tight 

Mol

0 1
H	 -0.000158	 1.970498	 0.756846
O	 -0.000074	 1.880206	 -0.189275
C	 -0.000015	 0.544847	 -0.545111
C	 0.172477	 -0.323208	 0.696950
C	 1.047421	 0.295640	 -1.625283
H	 -0.966184	 0.316554	 -0.969966
F	 -0.818486	 -0.100055	 1.533456
F	 0.182330	 -1.607789	 0.410397
F	 1.301982	 -0.031074	 1.321828
F	 0.771268	 1.024476	 -2.685507
F	 1.089407	 -0.966024	 -1.997870
F	 2.252428	 0.640873	 -1.200606

7 4 3 6 F

