%nprocshared=1
%mem=2GB
#HF/6-31G* nosymm scf=tight 

Mol

0 1
H	 -1.510108	 -2.140940	 2.858345
C	 -1.974291	 -1.504014	 2.108011
O	 -1.020556	 -0.830459	 1.351670
H	 -2.549779	 -2.121500	 1.432241
H	 -2.647957	 -0.812064	 2.611805
C	 -0.200255	 0.017064	 2.091979
C	 1.244560	 -0.262687	 1.750721
H	 -0.427560	 1.058853	 1.862404
H	 -0.352011	 -0.132141	 3.159083
O	 1.392611	 -0.295398	 0.366430
H	 1.872653	 0.510224	 2.189028
H	 1.536610	 -1.219695	 2.184930
C	 2.706965	 -0.449871	 -0.062409
H	 2.756559	 -0.644779	 -1.131878
H	 3.305899	 0.433456	 0.155466
H	 3.125548	 -1.294566	 0.467107

3 6 7 11 F

7 10 13 14 F

