%nprocshared=1
%mem=2GB
#HF/6-31G* nosymm scf=tight 

Mol

0 1
H	 -2.646374	 -0.642757	 1.268656
C	 -2.083525	 -0.384536	 0.393091
O	 -0.807605	 -0.127164	 0.768327
F	 -2.118945	 -1.383102	 -0.486752
F	 -2.621877	 0.670592	 -0.209486
C	 0.089743	 -1.179519	 0.767363
C	 -0.010342	 -1.848029	 -0.597641
Cl	 -0.289312	 -2.333527	 2.056471
H	 1.104794	 -0.852351	 0.910215
F	 -1.172727	 -2.450937	 -0.729940
F	 0.936814	 -2.759633	 -0.694134
F	 0.135585	 -0.992177	 -1.579576

10 7 6 9 F

9 6 3 2 F

