%nprocshared=1
%mem=2GB
#HF/6-31G* nosymm scf=tight 

Mol

0 1
H	 -3.855507	 -1.396950	 1.310901
C	 -2.783801	 -1.419700	 1.223082
C	 -2.041380	 -2.263260	 2.035710
C	 -2.149469	 -0.605652	 0.297942
H	 -2.534578	 -2.894075	 2.752784
C	 -0.663419	 -2.291954	 1.922209
H	 -2.726631	 0.047612	 -0.331134
C	 -0.770219	 -0.632700	 0.182570
H	 -0.072895	 -2.938422	 2.542720
C	 -0.023295	 -1.477045	 0.995556
H	 -0.275185	 -0.004460	 -0.531977
C	 1.463013	 -1.545621	 0.912827
O	 1.932750	 -2.779175	 1.023714
O	 2.165772	 -0.595659	 0.762631
C	 3.307716	 -2.968145	 0.740111
H	 3.620248	 -3.961373	 1.027539
H	 3.832294	 -2.226592	 1.322150
H	 3.500065	 -2.824247	 -0.313082

12 13 15 16 F

10 12 13 15 F

