%nprocshared=1
%mem=2GB
#HF/6-31G* nosymm scf=tight 
prop=(read,field)

Mol

0 1
H	 2.335093	 -1.204119	 -0.148069
O	 1.654222	 -0.626012	 -0.460953
C	 1.135991	 0.118811	 0.612286
C	 0.031745	 1.023524	 0.088494
H	 1.915866	 0.729596	 1.063535
H	 0.754741	 -0.542726	 1.386959
C	 -1.134621	 0.293177	 -0.585798
H	 0.474572	 1.714636	 -0.623234
H	 -0.338331	 1.620855	 0.920034
C	 -1.917619	 -0.639524	 0.339447
H	 -0.757921	 -0.268540	 -1.433152
H	 -1.813634	 1.041804	 -0.986737
H	 -2.777482	 -1.057282	 -0.175041
H	 -1.310070	 -1.471364	 0.680552
H	 -2.283555	 -0.111509	 1.216579

@grid.dat /N
