%nprocshared=1
%mem=2GB
#HF/6-31G* nosymm scf=tight 

Mol

0 1
H	 -0.821032	 -1.655889	 0.000000
O	 -1.037828	 -0.728600	 0.000000
C	 0.100509	 -0.036935	 0.000000
C	 -0.145615	 1.444728	 0.000000
O	 1.164303	 -0.563779	 0.000000
H	 -0.723763	 1.718161	 -0.875040
H	 0.798372	 1.968216	 0.000000
H	 -0.723763	 1.718161	 0.875040
