%nprocshared=1
%mem=2GB
#HF/6-31G* nosymm scf=tight 

Mol

0 1
H	 -3.161837	 0.500524	 -0.000234
C	 -2.367097	 -0.232926	 -0.000000
O	 -1.158440	 0.455814	 -0.000122
H	 -2.468853	 -0.861886	 -0.882833
H	 -2.468942	 -0.861421	 0.883154
C	 -1.208697	 1.703600	 -0.623324
C	 0.167290	 2.342607	 -0.552658
H	 -1.946938	 2.339011	 -0.132251
H	 -1.521383	 1.591919	 -1.662392
C	 0.206768	 3.719701	 -1.213668
H	 0.458180	 2.418996	 0.490514
H	 0.880791	 1.677206	 -1.028953
H	 -0.483577	 4.408964	 -0.735374
H	 1.199691	 4.151878	 -1.149082
H	 -0.058685	 3.662039	 -2.265625

11 7 6 8 F

8 6 3 2 F

