%nprocshared=8
%mem=2GB
#B3LYP/cc-pVDZ nosymm scf=tight
#   EmpiricalDispersion=GD3

Mol

0 1
O	 1.014300	 -0.002300	 0.060500
O	 2.462400	 -0.107500	 -0.002400
H	 0.965656	 0.961061	 -0.089732
H	 2.655500	 0.713700	 0.488700

3 1 2 4 F
