%nprocshared=1
%mem=2GB
#HF/6-31G* nosymm scf=tight 

Mol

0 1
O	 -2.042549	 -1.228399	 -0.269030
C	 -1.653912	 -0.146171	 0.050137
C	 -0.332303	 0.024011	 0.778412
C	 -2.438579	 1.106236	 -0.272369
C	 0.849188	 -0.060784	 -0.200751
H	 -0.307599	 0.973205	 1.306430
H	 -0.254913	 -0.772621	 1.510061
C	 1.028738	 -1.461885	 -0.787016
H	 1.766948	 0.237134	 0.303279
H	 0.687418	 0.654925	 -1.001208
C	 -0.280423	 -2.060223	 -1.300140
H	 1.752248	 -1.424340	 -1.598526
H	 1.452580	 -2.115502	 -0.028260
H	 -0.712040	 -1.445803	 -2.085155
H	 -1.013307	 -2.140523	 -0.502722
H	 -0.123466	 -3.054136	 -1.706991
H	 -3.277823	 0.863061	 -0.908988
H	 -1.806773	 1.843019	 -0.759671
H	 -2.802853	 1.554979	 0.648059

11 8 5 9 F

9 5 3 2 F

