%nprocshared=1
%mem=2GB
#HF/6-31G* nosymm scf=tight 

Mol

0 1
H	 2.001938	 -2.704552	 0.641852
C	 1.621213	 -1.882170	 0.042707
C	 0.572358	 -1.096849	 0.823920
H	 1.184549	 -2.288201	 -0.862956
H	 2.467481	 -1.266617	 -0.242702
N	 -0.000257	 -0.000071	 0.054619
H	 -0.225062	 -1.778080	 1.093033
H	 0.996402	 -0.738472	 1.766491
C	 -1.363055	 0.315058	 0.462241
C	 0.861099	 1.174764	 0.032575
C	 -2.412078	 -0.285320	 -0.468531
H	 -1.482241	 1.391144	 0.451970
H	 -1.549931	 -0.001174	 1.492681
C	 0.682149	 2.015359	 -1.227828
H	 1.891127	 0.843531	 0.071066
H	 0.707770	 1.793398	 0.921715
H	 -2.262839	 0.075384	 -1.480151
H	 -2.369300	 -1.368867	 -0.491760
H	 -3.410332	 -0.003975	 -0.144961
H	 0.892324	 1.417370	 -2.107527
H	 -0.325862	 2.404486	 -1.322936
H	 1.360737	 2.863718	 -1.216307
