%nprocshared=1
%mem=2GB
#HF/6-31G* nosymm scf=tight 

Mol

0 1
H	 1.148083	 -1.049780	 0.784252
O	 1.319262	 -0.618148	 -0.041729
C	 0.709265	 0.639550	 -0.033818
C	 -0.711126	 0.639738	 -0.534886
H	 1.318576	 1.275137	 -0.666252
H	 0.736034	 1.076371	 0.963928
C	 -1.320452	 -0.384573	 -1.097268
H	 -1.238187	 1.572854	 -0.408458
H	 -0.820610	 -1.322929	 -1.255625
H	 -2.339680	 -0.314064	 -1.432200

5 3 4 7 F

3 4 7 9 F

