%nprocshared=1
%mem=2GB
#HF/6-31G* nosymm scf=tight 

Mol

0 1
H	 -0.821032	 -1.655889	 0.000000
O	 -1.037828	 -0.728600	 0.000000
C	 0.100509	 -0.036935	 0.000000
C	 -0.134617	 1.426628	 0.242074
O	 1.156393	 -0.550761	 -0.174107
H	 -0.787456	 1.822987	 -0.526962
H	 0.809032	 1.950672	 0.234641
H	 -0.629651	 1.563272	 1.196530
