%nprocshared=1
%mem=2GB
#HF/6-31G* nosymm scf=tight 
prop=(read,field)

Mol

0 1
H	 -2.273250	 1.173290	 0.000295
O	 -1.439062	 1.618323	 0.000114
C	 -0.409694	 0.736134	 0.000030
C	 0.868519	 1.272204	 -0.000010
C	 -0.609490	 -0.642642	 0.000010
H	 0.977628	 2.340888	 0.000003
C	 1.967377	 0.434337	 -0.000037
C	 0.513466	 -1.461152	 -0.000004
C	 -2.004913	 -1.225567	 -0.000093
H	 2.956433	 0.856548	 -0.000059
C	 1.795374	 -0.940578	 -0.000030
H	 0.376013	 -2.528603	 -0.000036
H	 -2.571304	 -0.924791	 -0.879114
H	 -1.967479	 -2.307498	 0.000007
H	 -2.571535	 -0.924569	 0.878734
H	 2.645473	 -1.598249	 -0.000057

@grid.dat /N
