%nprocshared=1
%mem=2GB
#HF/6-31G* nosymm scf=tight 

Mol

0 1
H	 -1.070890	 -1.366565	 0.180696
O	 -1.422729	 -0.573567	 -0.196946
C	 -0.731407	 0.539437	 0.309156
C	 0.680193	 0.672443	 -0.251532
H	 -1.319765	 1.404033	 0.030086
H	 -0.700012	 0.506517	 1.397677
C	 1.071457	 -0.459361	 -1.202130
H	 0.759698	 1.625747	 -0.765864
H	 1.377003	 0.701997	 0.583406
H	 0.439494	 -0.472004	 -2.085113
H	 2.095143	 -0.345736	 -1.542897
H	 0.992356	 -1.428789	 -0.716110

1 2 3 4 F

