%nprocshared=1
%mem=2GB
#HF/6-31G* nosymm scf=tight 

Mol

0 1
H	 1.290398	 -2.203849	 -0.518554
C	 0.336188	 -1.713757	 -0.625084
O	 0.464886	 -0.454746	 -0.000158
H	 -0.428876	 -2.311158	 -0.143613
H	 0.105533	 -1.604179	 -1.678105
C	 -0.590998	 0.343045	 0.000118
O	 -1.699443	 -0.054298	 0.000227
H	 -0.340329	 1.404368	 0.000207
