%nprocshared=1
%mem=2GB
#HF/6-31G* nosymm scf=tight 

Mol

0 1
H	 -0.063110	 2.563950	 0.303720
C	 0.810739	 1.914567	 0.374269
N	 0.538815	 0.649616	 0.000000
O	 1.871765	 2.320387	 0.746749
C	 1.521968	 -0.411503	 0.000000
H	 -0.389078	 0.442218	 -0.290319
H	 2.150599	 -0.357004	 -0.881901
H	 0.999455	 -1.354525	 0.000000
H	 2.150599	 -0.357004	 0.881901

1 2 3 6 F

