%nprocshared=1
%mem=2GB
#HF/6-31G* nosymm scf=tight 

Mol

0 1
H	 1.872598	 -0.252764	 -2.940040
O	 2.335926	 0.158906	 -2.223412
C	 1.532767	 0.324085	 -1.153445
C	 2.087020	 0.919709	 -0.024739
C	 0.209397	 -0.071893	 -1.148428
H	 3.117861	 1.218700	 -0.053530
C	 1.315915	 1.116158	 1.102146
H	 -0.243398	 -0.533147	 -2.003851
C	 -0.536158	 0.140425	 0.000000
H	 1.751890	 1.576745	 1.969119
C	 -0.016541	 0.726914	 1.132068
N	 -1.935604	 -0.280333	 0.000000
H	 -0.627345	 0.872653	 1.998718
O	 -2.161694	 -1.452901	 0.000000
O	 -2.770341	 0.571417	 0.000000

4 3 2 1 F

