%nprocshared=1
%mem=2GB
#HF/6-31G* nosymm scf=tight 

Mol

0 1
H	 -2.492025	 -2.288019	 -0.385325
C	 -1.938446	 -1.381868	 -0.224650
C	 -2.589893	 -0.175397	 -0.032316
C	 -0.560430	 -1.408926	 -0.207671
H	 -3.664181	 -0.133531	 -0.041957
C	 -1.864536	 0.983163	 0.173415
H	 -0.026976	 -2.324953	 -0.352923
C	 0.154804	 -0.237046	 -0.000077
H	 -2.388617	 1.909279	 0.320876
C	 -0.471409	 0.998221	 0.197414
N	 1.611208	 -0.370857	 -0.000034
C	 0.219668	 2.323695	 0.430787
O	 2.274126	 0.622059	 -0.008063
O	 2.068510	 -1.474748	 0.007823
H	 0.860898	 2.589054	 -0.398392
H	 -0.528591	 3.096791	 0.552466
H	 0.839389	 2.298421	 1.316468
