%nprocshared=1
%mem=2GB
#HF/6-31G* nosymm scf=tight 

Mol

0 1
H	 -3.489736	 -0.245244	 0.802111
O	 -3.112929	 -0.206196	 -0.066282
C	 -1.776682	 -0.067725	 -0.008503
C	 -1.090195	 0.003414	 1.200081
C	 -1.089500	 0.003486	 -1.213815
H	 -1.630408	 -0.052567	 2.129783
C	 0.281523	 0.145561	 1.198429
H	 -1.641377	 -0.053704	 -2.132745
C	 0.282363	 0.145648	 -1.199077
H	 0.823967	 0.201773	 2.123467
C	 0.984182	 0.218375	 0.000000
H	 0.815366	 0.200881	 -2.132843
C	 2.452467	 0.370529	 0.000000
O	 3.228994	 -0.533774	 0.000000
H	 2.809473	 1.405765	 0.000000

5 3 2 1 F

