%nprocshared=1
%mem=2GB
#HF/6-31G* nosymm scf=tight 

Mol

0 1
H	 5.979078	 -5.605521	 4.107100
C	 6.022363	 -5.939587	 3.075088
C	 7.005337	 -5.097572	 2.262716
H	 6.315302	 -6.985302	 3.077964
H	 5.017973	 -5.877929	 2.664969
C	 7.085685	 -5.538206	 0.799432
H	 7.990050	 -5.161194	 2.714263
H	 6.705359	 -4.051771	 2.307492
C	 5.720565	 -5.730369	 0.138531
H	 7.652890	 -4.809745	 0.230866
H	 7.629120	 -6.478575	 0.740916
C	 4.964761	 -4.436609	 -0.126394
H	 5.845059	 -6.219618	 -0.826304
H	 5.094106	 -6.396824	 0.727227
C	 3.475324	 -4.538016	 -0.405696
O	 5.518869	 -3.378636	 -0.134321
C	 3.142513	 -5.197708	 -1.752249
H	 3.077758	 -3.530724	 -0.373804
H	 3.010537	 -5.105855	 0.398180
C	 3.906992	 -6.506058	 -1.962969
H	 2.073565	 -5.394231	 -1.800676
H	 3.371148	 -4.517137	 -2.568350
C	 3.584233	 -7.172245	 -3.299729
H	 3.675183	 -7.191428	 -1.151430
H	 4.975620	 -6.311267	 -1.903941
H	 2.526789	 -7.408725	 -3.374670
H	 3.837980	 -6.523738	 -4.133494
H	 4.139105	 -8.097216	 -3.419829

10 6 3 2 F

12 15 17 21 F

