%nprocshared=1
%mem=2GB
#HF/6-31G* nosymm scf=tight 

Mol

0 1
H	 2.770924	 -2.656041	 -2.831801
C	 2.077113	 -2.930250	 -2.043648
C	 0.873178	 -1.989570	 -2.018675
H	 1.769174	 -3.957312	 -2.218413
H	 2.619539	 -2.903684	 -1.102737
C	 -0.127859	 -2.340084	 -0.922563
H	 0.360321	 -2.011646	 -2.975169
H	 1.218369	 -0.966941	 -1.875618
N	 -1.268658	 -1.446027	 -0.948991
H	 -0.492277	 -3.351690	 -1.080095
H	 0.378086	 -2.341473	 0.048723
C	 -1.217365	 -0.386708	 0.039277
H	 -1.355622	 -1.044301	 -1.863373
C	 -2.452633	 0.504241	 -0.042481
H	 -1.172857	 -0.848333	 1.022069
H	 -0.315698	 0.227728	 -0.054795
C	 -3.758029	 -0.289423	 -0.010781
H	 -2.394220	 1.093569	 -0.952170
H	 -2.440793	 1.210787	 0.785871
H	 -3.816659	 -0.981993	 -0.845726
H	 -4.617837	 0.370165	 -0.069296
H	 -3.847478	 -0.867502	 0.904682

15 12 14 18 F

