%nprocshared=1
%mem=2GB
#HF/6-31G* nosymm scf=tight 

Mol

0 1
H	 -2.486628	 -0.792175	 2.873675
C	 -2.324120	 -0.702430	 1.801444
O	 -0.972488	 -0.785606	 1.482837
H	 -2.827790	 -1.518275	 1.301589
H	 -2.758181	 0.237951	 1.464246
C	 -0.189244	 0.213645	 2.054916
C	 1.263565	 -0.043037	 1.729850
H	 -0.477016	 1.190212	 1.663509
H	 -0.316674	 0.234424	 3.135348
O	 1.392611	 -0.295398	 0.366430
H	 1.854541	 0.823035	 2.020836
H	 1.614343	 -0.899054	 2.307676
C	 2.706965	 -0.449871	 -0.062409
H	 2.756559	 -0.644779	 -1.131878
H	 3.305899	 0.433456	 0.155466
H	 3.125548	 -1.294566	 0.467107

3 6 7 11 F

2 3 6 7 F

