%nprocshared=1
%mem=2GB
#HF/6-31G* nosymm scf=tight 

Mol

0 1
H	 -0.000158	 1.970498	 0.756846
O	 -0.000074	 1.880206	 -0.189275
C	 -0.000015	 0.544847	 -0.545111
C	 -0.172463	 0.409944	 -2.054432
C	 -1.047407	 -0.208907	 0.267801
H	 0.966182	 0.135493	 -0.290170
F	 0.818463	 1.019842	 -2.668952
F	 -0.182204	 -0.846896	 -2.445096
F	 -1.302006	 0.974193	 -2.451107
F	 -0.771291	 -0.104269	 1.550122
F	 -1.089281	 -1.488681	 -0.036835
F	 -2.252451	 0.301772	 0.071201

7 4 3 6 F

