%nprocshared=1
%mem=2GB
#HF/6-31G* nosymm scf=tight 

Mol

0 1
H	 1.538290	 -4.098341	 1.583519
C	 1.366265	 -3.760114	 0.566779
C	 0.150056	 -2.838041	 0.492075
H	 2.265845	 -3.251127	 0.232242
H	 1.234087	 -4.640549	 -0.055804
C	 -0.127859	 -2.340084	 -0.922563
H	 0.291078	 -1.978360	 1.139725
H	 -0.725751	 -3.366592	 0.864885
N	 -1.268658	 -1.446027	 -0.948991
H	 0.736373	 -1.790017	 -1.285184
H	 -0.253582	 -3.196032	 -1.594072
C	 -1.217365	 -0.386708	 0.039277
H	 -1.355622	 -1.044301	 -1.863373
C	 -2.452633	 0.504241	 -0.042481
H	 -1.172857	 -0.848333	 1.022069
H	 -0.315698	 0.227728	 -0.054795
C	 -3.758029	 -0.289423	 -0.010781
H	 -2.394220	 1.093569	 -0.952170
H	 -2.440793	 1.210787	 0.785871
H	 -3.816659	 -0.981993	 -0.845726
H	 -4.617837	 0.370165	 -0.069296
H	 -3.847478	 -0.867502	 0.904682

15 12 14 18 F

