%nprocshared=1
%mem=2GB
#HF/6-31G* nosymm scf=tight 

Mol

0 1
H	 -1.070890	 -1.366565	 0.180696
O	 -1.422729	 -0.573567	 -0.196946
C	 -0.731407	 0.539437	 0.309156
C	 0.680193	 0.672443	 -0.251532
H	 -1.319765	 1.404033	 0.030086
H	 -0.700012	 0.506517	 1.397677
C	 0.718456	 1.012342	 -1.741737
H	 1.205369	 1.438339	 0.311709
H	 1.204697	 -0.265077	 -0.079805
H	 0.266271	 1.979581	 -1.939659
H	 1.739635	 1.056084	 -2.105393
H	 0.191239	 0.265962	 -2.330992

1 2 3 4 F

