%nprocshared=1
%mem=2GB
#HF/6-31G* nosymm scf=tight opt=ModRedundant

Mol

0 1
H	 -2.537000	 0.001000	 -0.000000
C	 -1.550000	 -0.447000	 -0.000000
C	 -0.484000	 0.654000	 -0.000000
H	 -1.459000	 -1.075000	 -0.878000
H	 -1.459000	 -1.075000	 0.878000
C	 0.883000	 0.105000	 0.000000
H	 -0.588000	 1.288000	 -0.873000
H	 -0.588000	 1.288000	 0.873000
N	 1.933000	 -0.328000	 -0.000000
