%nprocshared=1
%mem=2GB
#HF/6-31G* nosymm scf=tight 

Mol

0 1
H	 2.546437	 -6.710226	 0.125252
C	 2.333431	 -5.666732	 0.275362
C	 1.576233	 -5.265660	 1.365748
C	 2.816779	 -4.727407	 -0.621843
H	 1.201983	 -5.995171	 2.060813
C	 1.302766	 -3.923758	 1.558092
H	 3.403567	 -5.040184	 -1.466506
C	 2.544287	 -3.383599	 -0.431313
H	 0.718536	 -3.595218	 2.396191
C	 1.785688	 -2.978410	 0.660526
H	 2.916303	 -2.653287	 -1.123099
C	 1.463013	 -1.545621	 0.912827
O	 1.970282	 -0.730723	 0.000018
O	 0.816573	 -1.161677	 1.836711
C	 3.377318	 -0.566646	 -0.000065
H	 3.695437	 -0.028981	 -0.881264
H	 3.789299	 -1.563704	 0.000236
H	 3.695516	 -0.028316	 0.880770

12 13 15 16 F

13 12 10 6 F

