%nprocshared=1
%mem=2GB
#HF/6-31G* nosymm scf=tight 

Mol

0 1
H	 -3.161837	 0.500524	 -0.000234
C	 -2.367097	 -0.232926	 -0.000000
O	 -1.158440	 0.455814	 -0.000122
H	 -2.468853	 -0.861886	 -0.882833
H	 -2.468942	 -0.861421	 0.883154
C	 -1.058687	 1.440634	 0.983775
C	 0.260828	 1.269961	 1.716178
H	 -1.892673	 1.359362	 1.682174
H	 -1.114729	 2.431214	 0.530432
C	 0.260459	 0.057543	 2.646190
H	 1.053597	 1.177673	 0.980201
H	 0.461059	 2.175610	 2.280452
H	 0.085757	 -0.863408	 2.096871
H	 1.213176	 -0.039844	 3.155789
H	 -0.511553	 0.141260	 3.406054

6 3 2 4 F

11 7 6 8 F

