%nprocshared=24
%mem=2GB
#HF/6-31G* nosymm scf=tight 

Mol

0 1
H	 -2.463887	 -1.404751	 3.174456
C	 -2.393282	 -1.145213	 2.135980
C	 -1.224516	 -1.150904	 1.538115
H	 -3.292956	 -0.884230	 1.609638
O	 -0.096546	 -0.714635	 2.157723
H	 -1.086834	 -1.516482	 0.536303
C	 1.059934	 -0.588664	 1.403988
C	 1.723089	 -1.927340	 1.170093
H	 1.785271	 0.070290	 1.868354
H	 0.783538	 -0.183582	 0.442201
F	 0.793509	 -2.859452	 1.018346
F	 2.467106	 -1.921847	 0.076787
F	 2.492098	 -2.281472	 2.178322

11 8 7 9 F

3 5 7 9 F

6 3 5 7 F

