%nprocshared=1
%mem=2GB
#HF/6-31G* nosymm scf=tight 

Mol

0 1
O	 -1.276010	 1.052711	 -0.768302
C	 -1.204840	 0.067374	 -0.106123
C	 -2.388195	 -0.672128	 0.458071
O	 -0.067104	 -0.527208	 0.221609
H	 -2.388023	 -1.694060	 0.097175
H	 -3.300579	 -0.174919	 0.164318
H	 -2.315377	 -0.706351	 1.539059
C	 1.170111	 0.034140	 -0.238951
C	 1.877377	 0.556458	 0.999009
C	 0.890744	 1.118853	 -1.267541
H	 1.746127	 -0.759276	 -0.691945
H	 2.042761	 -0.243527	 1.711694
H	 2.839409	 0.979626	 0.729276
H	 1.286469	 1.327559	 1.481590
H	 1.822179	 1.563620	 -1.603141
H	 0.382655	 0.707858	 -2.130619
H	 0.274444	 1.901038	 -0.835837

8 4 2 1 F

