%nprocshared=1
%mem=2GB
#HF/6-31G* nosymm scf=tight 

Mol

0 1
H	 -0.459001	 2.197147	 0.853665
C	 0.322889	 1.462562	 1.051958
N	 0.538815	 0.649616	 0.000000
O	 0.898398	 1.418538	 2.098887
C	 1.521968	 -0.411503	 0.000000
H	 -0.010655	 0.792836	 -0.815999
H	 2.150599	 -0.357004	 -0.881901
H	 0.999455	 -1.354525	 0.000000
H	 2.150599	 -0.357004	 0.881901

1 2 3 6 F

