%nprocshared=1
%mem=2GB
#HF/6-31G* nosymm scf=tight 
prop=(read,field)

Mol

0 1
H	 -1.475098	 -2.166253	 -0.000122
C	 -1.029478	 -1.186462	 -0.000074
N	 0.289148	 -1.151566	 -0.000037
C	 -1.829572	 -0.056468	 -0.000056
C	 0.894887	 0.027796	 0.000024
H	 -2.900056	 -0.144077	 -0.000097
C	 -1.200745	 1.174886	 -0.000012
C	 0.182091	 1.220424	 0.000016
C	 2.401890	 0.004076	 0.000115
H	 -1.774597	 2.084644	 -0.000016
H	 0.701276	 2.160975	 0.000035
H	 2.766538	 -0.524767	 -0.873595
H	 2.819695	 1.003900	 -0.000424
H	 2.766428	 -0.523621	 0.874588

@grid.dat /N
