%nprocshared=1
%mem=2GB
#HF/6-31G* nosymm scf=tight 

Mol

0 1
O	 0.336116	 -2.546344	 -0.333788
C	 -0.492438	 -1.734785	 -0.052179
C	 -1.601588	 -1.383640	 -1.028288
C	 -0.501006	 -1.042598	 1.292507
C	 -1.047154	 -0.600408	 -2.229242
H	 -2.323674	 -0.771333	 -0.499160
H	 -2.106849	 -2.281761	 -1.371970
C	 0.149006	 -1.302371	 -2.876593
H	 -1.848667	 -0.471114	 -2.947744
H	 -0.747505	 0.396522	 -1.909731
C	 0.075323	 -1.399736	 -4.404711
H	 0.247240	 -2.302033	 -2.457363
H	 1.057485	 -0.767858	 -2.606759
C	 -1.053427	 -2.288511	 -4.930067
H	 1.023541	 -1.787350	 -4.768483
H	 -0.024340	 -0.400645	 -4.824201
H	 -0.984148	 -3.291584	 -4.518035
H	 -1.004790	 -2.372263	 -6.011279
H	 -2.032469	 -1.894716	 -4.678683
H	 -0.298226	 0.016834	 1.159280
H	 0.252970	 -1.474226	 1.935936
H	 -1.477418	 -1.125088	 1.761142

6 3 2 1 F

6 3 5 8 F

12 8 11 15 F

