%nprocshared=1
%mem=2GB
#HF/6-31G* nosymm scf=tight 

Mol

0 1
H	 -2.281496	 0.004250	 2.316565
C	 -1.815741	 -0.045839	 1.350159
C	 -2.572424	 0.014807	 0.192273
C	 -0.446840	 -0.172146	 1.249631
H	 -3.641503	 0.113398	 0.249649
C	 -1.959500	 -0.050820	 -1.044960
H	 0.166204	 -0.221581	 2.125137
C	 0.154804	 -0.237046	 -0.000077
H	 -2.564142	 -0.001874	 -1.931588
C	 -0.579506	 -0.178758	 -1.189371
N	 1.611208	 -0.370857	 -0.000034
C	 -0.015877	 -0.240956	 -2.592006
O	 2.274126	 0.622059	 -0.008063
O	 2.068510	 -1.474748	 0.007823
H	 0.515947	 -1.166167	 -2.766007
H	 -0.828462	 -0.168248	 -3.303901
H	 0.680290	 0.565464	 -2.776834
