%nprocshared=1
%mem=2GB
#HF/6-31G* nosymm scf=tight 

Mol

0 1
H	 1.781612	 -3.934119	 -3.364066
C	 1.492618	 -3.685055	 -2.348094
C	 0.310108	 -2.717359	 -2.334032
H	 1.246823	 -4.612598	 -1.838705
H	 2.360194	 -3.256811	 -1.853964
C	 -0.127859	 -2.340084	 -0.922563
H	 -0.537220	 -3.153310	 -2.854005
H	 0.577611	 -1.814230	 -2.880100
N	 -1.268658	 -1.446027	 -0.948991
H	 -0.419786	 -3.238664	 -0.385631
H	 0.721476	 -1.915887	 -0.376609
C	 -1.217365	 -0.386708	 0.039277
H	 -1.355622	 -1.044301	 -1.863373
C	 -2.452633	 0.504241	 -0.042481
H	 -1.172857	 -0.848333	 1.022069
H	 -0.315698	 0.227728	 -0.054795
C	 -3.758029	 -0.289423	 -0.010781
H	 -2.394220	 1.093569	 -0.952170
H	 -2.440793	 1.210787	 0.785871
H	 -3.816659	 -0.981993	 -0.845726
H	 -4.617837	 0.370165	 -0.069296
H	 -3.847478	 -0.867502	 0.904682

15 12 14 18 F

