%nprocshared=1
%mem=2GB
#HF/6-31G* nosymm scf=tight 

Mol

0 1
H	 0.663642	 3.768237	 -0.000000
O	 1.421650	 3.199797	 -0.000000
C	 1.058466	 1.901616	 0.000000
C	 2.076847	 0.953543	 -0.000000
C	 -0.262841	 1.498776	 -0.000000
H	 3.095849	 1.291911	 0.000000
C	 1.769121	 -0.391213	 0.000000
H	 -1.067389	 2.207457	 -0.000000
C	 -0.536158	 0.140425	 0.000000
H	 2.561600	 -1.116358	 0.000000
C	 0.448970	 -0.821380	 0.000000
N	 -1.935604	 -0.280333	 0.000000
H	 0.194536	 -1.860932	 0.000000
O	 -2.161694	 -1.452901	 0.000000
O	 -2.770341	 0.571417	 0.000000

4 3 2 1 F

