%nprocshared=1
%mem=2GB
#HF/6-31G* nosymm scf=tight 

Mol

0 1
H	 3.083879	 -1.346558	 -0.395444
O	 2.172668	 -1.603300	 -0.415122
C	 1.365383	 -0.540424	 -0.207814
C	 1.860358	 0.740366	 0.001662
C	 -0.000652	 -0.762636	 -0.208979
H	 2.923783	 0.911136	 0.002183
C	 0.989896	 1.797112	 0.209638
H	 -0.384298	 -1.751448	 -0.370661
C	 -0.865228	 0.300799	 0.000000
H	 1.384723	 2.783807	 0.370644
C	 -0.376775	 1.584170	 0.210105
C	 -2.333960	 0.069074	 0.000000
H	 -1.054717	 2.403541	 0.371447
O	 -2.847347	 -1.003763	 0.000000
H	 -2.943845	 0.977528	 0.000000

4 3 2 1 F

