%nprocshared=1
%mem=2GB
#HF/6-31G* nosymm scf=tight 

Mol

0 1
H	 3.224588	 -0.616105	 -1.188539
C	 2.510811	 -0.837369	 -0.403369
C	 1.322923	 0.120767	 -0.479465
H	 2.195696	 -1.869235	 -0.523067
H	 3.027309	 -0.751517	 0.547658
C	 0.306652	 -0.176050	 0.621399
H	 0.832494	 0.031032	 -1.443235
H	 1.659098	 1.145938	 -0.378102
N	 -1.068537	 -0.011044	 0.085269
H	 0.372515	 -1.192590	 0.973735
H	 0.391664	 0.520566	 1.441230
O	 -1.656956	 -0.997225	 -0.235017
O	 -1.478635	 1.104830	 -0.018026

12 9 6 3 F

