%nprocshared=1
%mem=2GB
#HF/6-31G* nosymm scf=tight 

Mol

0 1
O	 -0.806752	 -1.114546	 1.082146
C	 -0.561929	 -0.074560	 0.531515
C	 -1.597472	 1.034011	 0.503089
N	 0.623947	 0.147590	 -0.102813
H	 -1.868528	 1.298769	 -0.513038
H	 -2.472791	 0.671041	 1.019920
H	 -1.237628	 1.928840	 0.999450
C	 0.909133	 -0.587270	 -1.319582
C	 1.762962	 0.793196	 0.512073
H	 1.794754	 -0.175588	 -1.790974
H	 0.074153	 -0.503276	 -1.993150
H	 1.089272	 -1.639902	 -1.112369
H	 2.320223	 1.327769	 -0.248013
H	 1.458248	 1.510192	 1.257727
H	 2.435082	 0.074502	 0.977419

2 4 8 10 F

