%nprocshared=1
%mem=2GB
#HF/6-31G* nosymm scf=tight 

Mol

0 1
H	 4.656506	 -2.466129	 5.086732
C	 4.020061	 -2.274321	 4.241196
C	 2.768564	 -2.867403	 4.169370
C	 4.453675	 -1.435091	 3.226995
H	 2.433496	 -3.518057	 4.956608
C	 1.950791	 -2.620296	 3.081864
H	 5.424123	 -0.976243	 3.284400
C	 3.636776	 -1.186287	 2.137433
H	 0.979341	 -3.070544	 3.009522
C	 2.381929	 -1.779166	 2.062482
H	 3.968271	 -0.537529	 1.350321
C	 1.463013	 -1.545621	 0.912827
O	 1.970282	 -0.730723	 0.000018
O	 0.381899	 -2.035942	 0.814662
C	 3.377318	 -0.566646	 -0.000065
H	 3.695437	 -0.028981	 -0.881264
H	 3.789299	 -1.563704	 0.000236
H	 3.695516	 -0.028316	 0.880770

12 13 15 16 F

13 12 10 6 F

