%nprocshared=1
%mem=2GB
#HF/6-31G* nosymm scf=tight 

Mol

0 1
H	 -1.128245	 1.577076	 -0.692794
C	 -0.501810	 0.698458	 -0.853719
N	 0.538815	 0.649616	 0.000000
O	 -0.747056	 -0.106016	 -1.703356
C	 1.521968	 -0.411503	 0.000000
H	 0.629060	 1.385548	 0.662226
H	 2.150599	 -0.357004	 -0.881901
H	 0.999455	 -1.354525	 0.000000
H	 2.150599	 -0.357004	 0.881901

1 2 3 6 F

