%nprocshared=1
%mem=2GB
#HF/6-31G* nosymm scf=tight 

Mol

0 1
O	 -1.276010	 1.052711	 -0.768302
C	 -1.204840	 0.067374	 -0.106123
C	 -2.388195	 -0.672128	 0.458071
O	 -0.067104	 -0.527208	 0.221609
H	 -2.388023	 -1.694060	 0.097175
H	 -3.300579	 -0.174919	 0.164318
H	 -2.315377	 -0.706351	 1.539059
C	 1.170111	 0.034140	 -0.238951
C	 1.181979	 -0.161894	 -1.744613
C	 2.335629	 -0.648510	 0.459763
H	 1.166316	 1.087184	 0.001029
H	 0.328000	 0.325663	 -2.200966
H	 2.086070	 0.261634	 -2.169555
H	 1.147065	 -1.216942	 -1.994229
H	 3.275855	 -0.244068	 0.098628
H	 2.288422	 -0.489463	 1.529554
H	 2.323989	 -1.715603	 0.261813

8 4 2 1 F

