%nprocshared=1
%mem=2GB
#HF/6-31G* nosymm scf=tight 

Mol

0 1
H	 -3.420663	 1.227371	 -1.044276
O	 -3.452007	 0.283848	 -0.965577
C	 -3.181085	 -0.079926	 0.364119
C	 -1.765924	 0.277073	 0.805136
H	 -3.327791	 -1.152017	 0.410903
H	 -3.905698	 0.375695	 1.036898
C	 -0.677594	 -0.417312	 -0.014550
H	 -1.637766	 1.358238	 0.744969
H	 -1.659588	 0.017670	 1.857098
C	 0.738335	 -0.034840	 0.421385
H	 -0.814977	 -0.178223	 -1.064632
H	 -0.802730	 -1.495410	 0.071702
C	 1.393079	 0.983200	 -0.516159
H	 0.701811	 0.361745	 1.433218
H	 1.357576	 -0.929888	 0.466468
C	 1.694618	 0.457390	 -1.924262
H	 2.314654	 1.347160	 -0.064574
H	 0.737561	 1.847165	 -0.603783
C	 2.087326	 1.536232	 -2.935343
H	 0.813556	 -0.061697	 -2.293814
H	 2.484274	 -0.289245	 -1.867854
H	 1.321169	 2.303996	 -3.003756
H	 2.214580	 1.108800	 -3.925265
H	 3.020098	 2.022413	 -2.669393

20 16 13 17 F

17 13 10 7 F

11 7 4 3 F

1 2 3 5 F

7 4 3 2 F

