%nprocshared=1
%mem=2GB
#HF/6-31G* nosymm scf=tight 

Mol

0 1
H	 0.815678	 -5.035392	 1.075691
C	 0.938930	 -4.314030	 0.274319
C	 -0.260715	 -3.370999	 0.193663
H	 1.857410	 -3.765454	 0.463229
H	 1.069560	 -4.868076	 -0.651000
C	 -0.127859	 -2.340084	 -0.922563
H	 -0.389095	 -2.846379	 1.135301
H	 -1.166913	 -3.953961	 0.037609
N	 -1.268658	 -1.446027	 -0.948991
H	 0.762636	 -1.740770	 -0.752843
H	 0.022074	 -2.852712	 -1.878654
C	 -1.217365	 -0.386708	 0.039277
H	 -1.355622	 -1.044301	 -1.863373
C	 -2.452633	 0.504241	 -0.042481
H	 -1.172857	 -0.848333	 1.022069
H	 -0.315698	 0.227728	 -0.054795
C	 -3.758029	 -0.289423	 -0.010781
H	 -2.394220	 1.093569	 -0.952170
H	 -2.440793	 1.210787	 0.785871
H	 -3.816659	 -0.981993	 -0.845726
H	 -4.617837	 0.370165	 -0.069296
H	 -3.847478	 -0.867502	 0.904682

15 12 14 18 F

