%nprocshared=1
%mem=2GB
#HF/6-31G* nosymm scf=tight 

Mol

0 1
H	 -3.420663	 1.227371	 -1.044276
O	 -3.452007	 0.283848	 -0.965577
C	 -3.181085	 -0.079926	 0.364119
C	 -1.765924	 0.277073	 0.805136
H	 -3.327791	 -1.152017	 0.410903
H	 -3.905698	 0.375695	 1.036898
C	 -0.677594	 -0.417312	 -0.014550
H	 -1.637766	 1.358238	 0.744969
H	 -1.659588	 0.017670	 1.857098
C	 -0.028044	 0.502006	 -1.050947
H	 -1.103014	 -1.284877	 -0.509584
H	 0.087321	 -0.796301	 0.661220
C	 0.378526	 1.858431	 -0.468798
H	 0.841542	 0.002374	 -1.471193
H	 -0.718783	 0.660106	 -1.878285
C	 -0.792746	 2.749020	 -0.038532
H	 0.987553	 2.393697	 -1.195620
H	 1.017991	 1.688635	 0.394956
C	 -0.391419	 3.971940	 0.788395
H	 -1.486589	 2.147597	 0.543844
H	 -1.340638	 3.073742	 -0.920900
H	 0.169532	 3.678384	 1.671740
H	 -1.269350	 4.516850	 1.121785
H	 0.223113	 4.662726	 0.220655

20 16 13 17 F

17 13 10 7 F

13 10 7 11 F

1 2 3 5 F

7 4 3 2 F

