%nprocshared=8
%mem=2GB
#B3LYP/6-31G* nosymm scf=tight
# opt=ModRedundant  EmpiricalDispersion=GD3

Mol

1 1
C	 1.300496	 -0.366580	 -1.087514
C	 1.702405	 0.174630	 0.148053
C	 2.935030	 -0.180453	 0.686821
C	 3.772255	 -1.063311	 -0.002268
C	 3.377732	 -1.598967	 -1.232166
C	 2.143398	 -1.258673	 -1.776536
C	 -0.000000	 -0.000000	 -1.658508
H	 1.037404	 0.826981	 0.707024
H	 3.238604	 0.222438	 1.647579
H	 4.734769	 -1.334621	 0.420333
H	 4.035995	 -2.272976	 -1.770622
H	 1.859727	 -1.643615	 -2.752030
N	 -0.712589	 -0.905950	 -2.322235
N	 -0.464304	 1.237690	 -1.511507
H	 -1.393465	 1.515359	 -1.805319
H	 0.141715	 1.964161	 -1.153368
H	 -1.377189	 -1.485970	 -1.827091
H	 -0.673431	 -1.006470	 -3.329771

1 7 13 17 F
