%nprocshared=1
%mem=2GB
#HF/6-31G* nosymm scf=tight 
prop=(read,field)

Mol

0 1
H	 -1.071089	 -1.366659	 0.180674
O	 -1.422928	 -0.573661	 -0.196968
C	 -0.731606	 0.539343	 0.309134
C	 0.679994	 0.672349	 -0.251554
H	 -1.319964	 1.403939	 0.030064
H	 -0.700211	 0.506423	 1.397655
C	 1.598940	 -0.492231	 0.118576
H	 0.616203	 0.758440	 -1.332371
H	 1.106833	 1.602543	 0.117347
H	 1.239539	 -1.428728	 -0.297356
H	 2.601229	 -0.335149	 -0.265752
H	 1.674755	 -0.608512	 1.196998

@grid.dat /N
