%nprocshared=1
%mem=2GB
#HF/6-31G* nosymm scf=tight 

Mol

0 1
H	 -3.269016	 -0.876744	 0.468090
C	 -2.809304	 0.000122	 0.025886
N	 -1.391456	 0.000019	 0.300661
H	 -3.037557	 -0.000063	 -1.044252
H	 -3.269223	 0.876956	 0.468000
C	 -0.687361	 -1.027686	 -0.440864
C	 -1.105565	 -0.101634	 1.718315
H	 -1.031209	 -2.029319	 -0.165169
H	 -0.884730	 -0.891581	 -1.499204
C	 0.809786	 -0.930617	 -0.192476
H	 -1.607964	 0.709854	 2.234685
H	 -1.477096	 -1.041966	 2.136943
C	 0.391583	 -0.004564	 1.966702
H	 1.312186	 -1.742105	 -0.708847
H	 1.181317	 0.009715	 -0.611103
N	 1.095678	 -1.032271	 1.225178
H	 0.588951	 -0.140671	 3.025043
H	 0.735431	 0.997067	 1.691008
C	 2.513525	 -1.032375	 1.499953
H	 2.989131	 -1.853413	 0.975103
H	 2.682016	 -1.172798	 2.561895
H	 3.007865	 -0.104258	 1.197423
