%nprocshared=1
%mem=2GB
#HF/6-31G* nosymm scf=tight 

Mol

0 1
H	 -0.580385	 -1.599051	 -0.342986
N	 -0.626943	 -0.667432	 -0.000092
C	 -1.709781	 0.174935	 -0.454621
C	 0.325755	 -0.252874	 0.869779
H	 -2.249075	 -0.292718	 -1.271609
H	 -1.290373	 1.105939	 -0.799664
H	 -2.407345	 0.379963	 0.350612
C	 1.674978	 -0.919497	 0.690344
O	 0.127974	 0.574320	 1.716447
H	 2.068026	 -0.726742	 -0.302990
H	 2.359261	 -0.526889	 1.427442
H	 1.590945	 -1.994555	 0.814939

4 2 3 5 F

