%nprocshared=24
%mem=2GB
#HF/6-31G* nosymm scf=tight 

Mol

0 1
H	 -2.463887	 -1.404751	 3.174456
C	 -2.393282	 -1.145213	 2.135980
C	 -1.224516	 -1.150904	 1.538115
H	 -3.292956	 -0.884230	 1.609638
O	 -0.336431	 -0.132668	 1.683235
H	 -0.893935	 -1.964531	 0.917666
C	 0.796337	 -0.130354	 0.884319
C	 1.841925	 -1.096275	 1.394494
H	 1.250233	 0.852061	 0.814968
H	 0.502957	 -0.451535	 -0.103756
F	 1.245122	 -2.168502	 1.894627
F	 2.648883	 -1.501099	 0.428138
F	 2.584776	 -0.565709	 2.343168

11 8 7 9 F

3 5 7 9 F

6 3 5 7 F

