%nprocshared=1
%mem=2GB
#HF/6-31G* nosymm scf=tight 

Mol

0 1
H	 -3.436592	 -0.758084	 -0.614452
O	 -3.117320	 -0.163817	 0.050775
C	 -1.777246	 -0.062288	 0.006514
C	 -1.010683	 -0.763874	 -0.919315
C	 -1.169922	 0.779555	 0.929836
H	 -1.489299	 -1.414273	 -1.631508
C	 0.360925	 -0.620671	 -0.918050
H	 -1.782683	 1.309896	 1.633777
C	 0.202918	 0.912295	 0.918546
H	 0.964658	 -1.155895	 -1.626670
C	 0.984182	 0.218375	 0.000000
H	 0.674054	 1.564544	 1.633853
C	 2.452467	 0.370529	 0.000000
O	 3.228994	 -0.533774	 0.000000
H	 2.809473	 1.405765	 0.000000

5 3 2 1 F

