%nprocshared=1
%mem=2GB
#HF/6-31G* nosymm scf=tight 

Mol

0 1
H	 2.743986	 -0.881101	 2.998148
O	 2.014182	 -0.893155	 2.395533
C	 1.231231	 0.258349	 2.578886
C	 -0.045548	 0.097161	 1.772908
H	 0.992260	 0.395335	 3.632658
H	 1.770860	 1.145098	 2.249013
C	 0.198102	 0.111031	 0.262842
H	 -0.727637	 0.896526	 2.049492
H	 -0.520612	 -0.834452	 2.067678
C	 1.331804	 -0.827780	 -0.158768
H	 -0.720372	 -0.164095	 -0.249880
H	 0.436822	 1.124355	 -0.057635
C	 2.723619	 -0.410569	 0.329459
H	 1.342964	 -0.912588	 -1.244120
H	 1.116806	 -1.824343	 0.220779
C	 2.789171	 -0.022053	 1.807665
H	 3.058155	 0.434150	 -0.267721
H	 3.429041	 -1.216225	 0.135903
H	 2.084523	 0.773898	 2.033434
H	 2.561886	 -0.859609	 2.458832
H	 3.781465	 0.332546	 2.069136

2 3 4 8 F

8 4 7 10 F

4 7 10 14 F

16 13 10 14 F

