%nprocshared=1
%mem=2GB
#HF/6-31G* nosymm scf=tight 
prop=(read,field)

Mol

0 1
H	 0.000094	 2.350854	 -0.104887
N	 0.000075	 1.373867	 -0.320094
C	 -1.200380	 0.736276	 0.193815
C	 1.200438	 0.736149	 0.193851
H	 -1.281996	 0.812617	 1.281004
H	 -2.072396	 1.212177	 -0.242508
C	 -1.167186	 -0.733609	 -0.192827
H	 2.072514	 1.211909	 -0.242481
H	 1.282038	 0.812477	 1.281047
C	 1.167093	 -0.733715	 -0.192810
H	 -2.000974	 -1.268502	 0.242664
H	 -1.220414	 -0.826231	 -1.275909
O	 -0.000042	 -1.345897	 0.284660
H	 2.000885	 -1.268719	 0.242649
H	 1.220290	 -0.826283	 -1.275908

@grid.dat /N
