%nprocshared=1
%mem=2GB
#HF/6-31G* nosymm scf=tight 
prop=(read,field)

Mol

0 1
H	 2.005443	 1.251642	 -0.256054
C	 1.163637	 0.735502	 0.187571
H	 1.223286	 0.838322	 1.269894
O	 -0.000100	 1.355855	 -0.288968
C	 1.163962	 -0.735529	 -0.187633
C	 -1.163962	 0.735529	 0.187633
H	 2.005815	 -1.251541	 0.255996
H	 1.223529	 -0.838363	 -1.269940
O	 0.000100	 -1.355855	 0.288968
H	 -1.223529	 0.838363	 1.269940
H	 -2.005815	 1.251541	 -0.255996
C	 -1.163637	 -0.735502	 -0.187571
H	 -2.005443	 -1.251642	 0.256054
H	 -1.223286	 -0.838322	 -1.269895

@grid.dat /N
