%nprocshared=1
%mem=2GB
#HF/6-31G* nosymm scf=tight 

Mol

0 1
H	 2.976572	 -2.290386	 0.661106
C	 2.210203	 -2.699699	 0.010804
C	 0.975861	 -1.799445	 -0.019286
H	 2.641983	 -2.807024	 -0.980294
H	 1.965946	 -3.694003	 0.374044
C	 -0.127859	 -2.340084	 -0.922563
H	 1.245556	 -0.804807	 -0.360387
H	 0.588484	 -1.685898	 0.991871
N	 -1.268658	 -1.446027	 -0.948991
H	 0.250780	 -2.428903	 -1.937308
H	 -0.398928	 -3.352225	 -0.604021
C	 -1.217365	 -0.386708	 0.039277
H	 -1.355622	 -1.044301	 -1.863373
C	 -2.452633	 0.504241	 -0.042481
H	 -1.172857	 -0.848333	 1.022069
H	 -0.315698	 0.227728	 -0.054795
C	 -3.758029	 -0.289423	 -0.010781
H	 -2.394220	 1.093569	 -0.952170
H	 -2.440793	 1.210787	 0.785871
H	 -3.816659	 -0.981993	 -0.845726
H	 -4.617837	 0.370165	 -0.069296
H	 -3.847478	 -0.867502	 0.904682

15 12 14 18 F

