%nprocshared=1
%mem=2GB
#HF/6-31G* nosymm scf=tight 

Mol

0 1
H	 -3.489899	 1.228218	 -1.029938
O	 -3.452007	 0.283848	 -0.965577
C	 -3.181085	 -0.079926	 0.364119
C	 -1.765924	 0.277073	 0.805136
H	 -3.327791	 -1.152017	 0.410903
H	 -3.905698	 0.375695	 1.036898
C	 -1.534627	 0.111291	 2.307646
H	 -1.056186	 -0.340345	 0.253748
H	 -1.564940	 1.305732	 0.510710
C	 -2.323811	 1.114925	 3.150906
H	 -0.474080	 0.209594	 2.518090
H	 -1.810885	 -0.900713	 2.599060
C	 -3.795045	 1.209544	 2.737864
H	 -2.249414	 0.832472	 4.198333
H	 -1.864397	 2.099027	 3.066719
C	 -4.033525	 1.805234	 1.345587
H	 -4.338916	 1.796199	 3.476602
H	 -4.228763	 0.212063	 2.765018
C	 -5.462440	 1.647130	 0.822510
H	 -3.351926	 1.327943	 0.645654
H	 -3.767271	 2.860324	 1.355454
H	 -5.760941	 0.602166	 0.813247
H	 -5.544899	 2.022225	 -0.193040
H	 -6.179667	 2.190738	 1.428513

20 16 13 17 F

17 13 10 7 F

13 10 7 11 F

11 7 4 3 F

1 2 3 5 F

