%nprocshared=1
%mem=2GB
#HF/6-31G* nosymm scf=tight 

Mol

0 1
H	 -0.944757	 -0.000069	 1.678017
O	 -0.042387	 -0.000390	 1.388199
C	 -0.001487	 0.000018	 -0.026623
C	 -1.091046	 -0.926024	 -0.570634
C	 -0.191492	 1.427206	 -0.543997
C	 1.383925	 -0.525518	 -0.385601
H	 -1.059685	 -0.980772	 -1.654109
H	 -2.078456	 -0.569407	 -0.286467
H	 -0.967390	 -1.926367	 -0.170584
H	 -0.125607	 1.468067	 -1.626623
H	 -1.166338	 1.815261	 -0.257606
H	 0.566113	 2.081455	 -0.127020
H	 1.517985	 -0.565161	 -1.461798
H	 1.522337	 -1.522493	 0.017351
H	 2.148924	 0.117355	 0.034976
