%nprocshared=1
%mem=2GB
#HF/6-31G* nosymm scf=tight opt=ModRedundant

Mol

0 1
O	 0.413000	 1.358000	 -0.000000
C	 0.525000	 0.171000	 -0.000000
C	 -0.680000	 -0.753000	 -0.000000
C	 1.885000	 -0.495000	 0.000000
C	 -2.014000	 -0.016000	 0.000000
H	 -0.600000	 -1.407000	 -0.866000
H	 -0.600000	 -1.407000	 0.866000
H	 -2.108000	 0.617000	 -0.874000
H	 -2.837000	 -0.723000	 0.000000
H	 -2.108000	 0.617000	 0.874000
H	 1.997000	 -1.130000	 -0.874000
H	 2.660000	 0.258000	 -0.000000
H	 1.997000	 -1.130000	 0.875000
