%nprocshared=1
%mem=2GB
#HF/6-31G* nosymm scf=tight opt=ModRedundant

Mol

0 1
H	 3.311000	 0.170000	 -0.119000
N	 2.469000	 -0.372000	 -0.090000
C	 1.302000	 0.492000	 0.016000
H	 2.537000	 -0.970000	 0.711000
C	 0.019000	 -0.330000	 -0.037000
H	 1.323000	 1.179000	 -0.824000
H	 1.303000	 1.105000	 0.921000
C	 -1.248000	 0.525000	 0.039000
H	 0.022000	 -0.914000	 -0.952000
H	 0.019000	 -1.045000	 0.785000
C	 -2.529000	 -0.306000	 -0.015000
H	 -1.249000	 1.240000	 -0.780000
H	 -1.238000	 1.111000	 0.956000
H	 -2.587000	 -0.878000	 -0.937000
H	 -3.411000	 0.326000	 0.038000
H	 -2.576000	 -1.009000	 0.812000
