%nprocshared=1
%mem=2GB
#HF/6-31G* nosymm scf=tight 

Mol

0 1
H	 -3.269016	 -0.876744	 0.468090
C	 -2.809304	 0.000122	 0.025886
N	 -1.391456	 0.000019	 0.300661
H	 -3.037557	 -0.000063	 -1.044252
H	 -3.269223	 0.876956	 0.468000
C	 -0.596090	 -0.000307	 -0.911437
C	 -0.999934	 -1.089818	 1.172884
H	 -0.771105	 -0.901588	 -1.506894
H	 -0.881303	 0.854351	 -1.516231
C	 0.884107	 0.093451	 -0.575591
H	 -1.579703	 -1.029754	 2.088207
H	 -1.201680	 -2.063224	 0.715403
C	 0.480264	 -0.996060	 1.508731
H	 1.463877	 0.033387	 -1.490913
H	 1.085853	 1.066856	 -0.118109
N	 1.275630	 -0.996387	 0.296633
H	 0.765477	 -1.850719	 2.113524
H	 0.655279	 -0.094779	 2.104188
C	 2.693478	 -0.996491	 0.571407
H	 3.247627	 -1.060221	 -0.358448
H	 2.951055	 -1.860841	 1.173387
H	 3.025965	 -0.100353	 1.104030
