%nprocshared=1
%mem=2GB
#HF/6-31G* nosymm scf=tight 

Mol

0 1
O	 -0.644987	 -1.652990	 1.664992
C	 -1.514987	 -1.440192	 0.882411
C	 -2.775474	 -2.260464	 0.784449
O	 -1.481751	 -0.454642	 0.000584
H	 -3.283566	 -2.233162	 1.740984
H	 -3.433286	 -1.897333	 0.008654
H	 -2.505502	 -3.290827	 0.586090
C	 -0.334255	 0.388708	 0.000906
C	 0.891947	 -0.504646	 0.000751
H	 -0.365390	 1.025305	 -0.873475
H	 -0.365484	 1.024911	 0.875569
C	 0.838286	 -1.556101	 -1.109219
H	 0.972990	 -0.989855	 0.969484
H	 1.777328	 0.114301	 -0.115286
C	 0.238576	 -2.884179	 -0.643511
H	 0.254781	 -1.173528	 -1.944830
H	 1.841830	 -1.731657	 -1.492835
C	 0.183767	 -3.933901	 -1.752540
H	 -0.764426	 -2.710633	 -0.260177
H	 0.821831	 -3.269066	 0.190003
H	 -0.421255	 -3.591457	 -2.587222
H	 -0.245887	 -4.863311	 -1.392219
H	 1.176919	 -4.154335	 -2.133418

13 9 8 10 F

2 4 8 10 F

19 15 12 16 F

1 2 4 8 F

