%nprocshared=1
%mem=2GB
#HF/6-31G* nosymm scf=tight 

Mol

0 1
H	 7.382219	 -7.116294	 -2.826922
C	 7.104561	 -6.082881	 -2.643932
C	 7.712964	 -5.570186	 -1.339262
H	 7.445459	 -5.493980	 -3.490293
H	 6.019415	 -6.031149	 -2.619803
C	 7.335142	 -4.116327	 -1.047101
H	 8.793284	 -5.660436	 -1.387893
H	 7.381073	 -6.200535	 -0.515732
C	 5.843131	 -3.823895	 -1.207269
H	 7.638632	 -3.857238	 -0.038929
H	 7.885566	 -3.463889	 -1.721192
C	 4.964761	 -4.436609	 -0.126394
H	 5.673548	 -2.748834	 -1.171841
H	 5.486614	 -4.145555	 -2.183285
C	 3.475324	 -4.538016	 -0.405696
O	 5.419871	 -4.809264	 0.913033
C	 3.142513	 -5.197708	 -1.752249
H	 3.077758	 -3.530724	 -0.373804
H	 3.010537	 -5.105855	 0.398180
C	 3.906992	 -6.506058	 -1.962969
H	 2.073565	 -5.394231	 -1.800676
H	 3.371148	 -4.517137	 -2.568350
C	 3.584233	 -7.172245	 -3.299729
H	 3.675183	 -7.191428	 -1.151430
H	 4.975620	 -6.311267	 -1.903941
H	 2.526789	 -7.408725	 -3.374670
H	 3.837980	 -6.523738	 -4.133494
H	 4.139105	 -8.097216	 -3.419829

10 6 3 2 F

12 15 17 21 F

