%nprocshared=1
%mem=2GB
#HF/6-31G* nosymm scf=tight 

Mol

0 1
H	 -2.420432	 -1.509237	 -1.763682
C	 -1.896717	 -0.927946	 -1.028019
C	 -2.583937	 -0.110611	 -0.146748
C	 -0.521821	 -0.988942	 -0.951282
H	 -3.656448	 -0.049408	 -0.190521
C	 -1.896816	 0.632032	 0.795098
H	 0.038672	 -1.610839	 -1.617515
C	 0.154804	 -0.237046	 -0.000077
H	 -2.448299	 1.260064	 1.470034
C	 -0.508149	 0.598566	 0.905061
N	 1.611208	 -0.370857	 -0.000034
C	 0.139573	 1.452436	 1.972906
O	 2.274126	 0.622059	 -0.008063
O	 2.068510	 -1.474748	 0.007823
H	 0.822645	 2.173327	 1.545287
H	 -0.630869	 1.984226	 2.516959
H	 0.706539	 0.852910	 2.671649
