%nprocshared=1
%mem=2GB
#HF/6-31G* nosymm scf=tight 

Mol

0 1
H	 -2.577606	 0.247184	 1.509904
O	 -1.840915	 -0.185680	 1.103718
C	 -2.061112	 -1.573124	 1.079922
C	 -2.237616	 -2.177660	 2.468486
H	 -2.964050	 -1.717918	 0.500776
H	 -1.253583	 -2.078097	 0.551077
C	 -3.213010	 -1.408429	 3.362778
H	 -2.576697	 -3.204294	 2.357065
H	 -1.260948	 -2.216385	 2.948056
C	 -2.682839	 -0.030045	 3.767494
H	 -3.418034	 -1.994427	 4.254371
H	 -4.162905	 -1.286904	 2.841940
C	 -2.097097	 0.797627	 2.617622
H	 -3.481052	 0.533985	 4.246631
H	 -1.911412	 -0.164100	 4.522895
C	 -0.811072	 0.233477	 2.007415
H	 -2.848217	 0.873632	 1.834131
H	 -1.916856	 1.814731	 2.962369
C	 0.382475	 0.303405	 2.962398
H	 -0.574407	 0.782944	 1.097367
H	 -0.961194	 -0.801086	 1.708339
C	 0.062563	 -0.227657	 4.359285
H	 1.212341	 -0.261511	 2.543255
H	 0.723087	 1.334033	 3.037727
H	 -0.250205	 -1.267349	 4.321318
H	 0.928272	 -0.166602	 5.011553
H	 -0.739805	 0.340935	 4.821098

14 10 7 4 F

14 10 13 16 F

10 7 4 8 F

8 4 3 2 F

10 13 16 20 F

20 16 19 22 F

