%nprocshared=1
%mem=2GB
#HF/6-31G* nosymm scf=tight 

Mol

0 1
O	 -0.745080	 -0.499579	 2.061423
C	 -0.451170	 -1.129930	 1.097049
C	 0.801727	 -1.959116	 0.945507
O	 -1.200773	 -1.186151	 0.005013
C	 1.124911	 -2.785238	 2.184071
H	 1.613075	 -1.280220	 0.700432
H	 0.669725	 -2.590969	 0.072237
H	 1.272053	 -2.149836	 3.048928
H	 2.030738	 -3.360307	 2.024106
H	 0.320287	 -3.472711	 2.414906
C	 -2.418460	 -0.448154	 0.004236
C	 -3.354512	 -1.116014	 0.989163
H	 -2.827804	 -0.444502	 -0.996768
H	 -2.210207	 0.576080	 0.282026
H	 -3.548741	 -2.142549	 0.699923
H	 -4.299426	 -0.583268	 1.020262
H	 -2.927879	 -1.116381	 1.985777

2 4 11 13 F

11 4 2 3 F

