%nprocshared=1
%mem=2GB
#HF/6-31G* nosymm scf=tight 

Mol

0 1
H	 -0.117665	 2.513404	 -0.463210
C	 0.743512	 1.852280	 -0.570807
N	 0.538815	 0.649616	 0.000000
O	 1.737633	 2.196110	 -1.138884
C	 1.521968	 -0.411503	 0.000000
H	 -0.336930	 0.490534	 0.442772
H	 2.150599	 -0.357004	 -0.881901
H	 0.999455	 -1.354525	 0.000000
H	 2.150599	 -0.357004	 0.881901

1 2 3 6 F

