%nprocshared=1
%mem=2GB
#HF/6-31G* nosymm scf=tight 

Mol

0 1
O	 -0.806752	 -1.114546	 1.082146
C	 -0.561929	 -0.074560	 0.531515
C	 -1.597472	 1.034011	 0.503089
N	 0.623947	 0.147590	 -0.102813
H	 -1.868528	 1.298769	 -0.513038
H	 -2.472791	 0.671041	 1.019920
H	 -1.237628	 1.928840	 0.999450
C	 1.845053	 -0.319182	 0.524006
C	 0.803608	 1.104708	 -1.172342
H	 2.668341	 -0.226912	 -0.175780
H	 1.730877	 -1.351028	 0.807199
H	 2.082115	 0.264679	 1.410758
H	 1.576382	 0.746628	 -1.842146
H	 -0.098123	 1.227502	 -1.750907
H	 1.109860	 2.079771	 -0.797809

2 4 8 10 F

