%nprocshared=1
%mem=2GB
#HF/6-31G* nosymm scf=tight 

Mol

0 1
H	 -3.457960	 0.166880	 1.449720
O	 -3.367910	 -0.300316	 2.267454
C	 -3.043259	 -1.643282	 2.012310
C	 -1.609705	 -1.833855	 1.529264
H	 -3.184960	 -2.163733	 2.950780
H	 -3.740919	 -2.074362	 1.295219
C	 -1.291226	 -3.259615	 1.072485
H	 -1.425511	 -1.139565	 0.713543
H	 -0.938817	 -1.555597	 2.340343
C	 -1.289957	 -4.264364	 2.228035
H	 -0.321754	 -3.269322	 0.582183
H	 -2.022712	 -3.573051	 0.327484
C	 -2.492630	 -4.160365	 3.173076
H	 -1.235579	 -5.273879	 1.824589
H	 -0.381714	 -4.121600	 2.809769
C	 -2.555067	 -2.871439	 3.997241
H	 -3.401263	 -4.236575	 2.579447
H	 -2.497790	 -5.018128	 3.843936
C	 -3.824803	 -2.766704	 4.844730
H	 -2.499456	 -2.014207	 3.327784
H	 -1.689516	 -2.803452	 4.651842
C	 -3.886621	 -1.484005	 5.673298
H	 -4.696158	 -2.818861	 4.195492
H	 -3.887054	 -3.627409	 5.507450
H	 -3.859261	 -0.604241	 5.036516
H	 -4.798343	 -1.438389	 6.260935
H	 -3.047299	 -1.419595	 6.360141

14 10 7 4 F

14 10 13 16 F

10 7 4 8 F

10 13 16 20 F

20 16 19 22 F

4 3 2 1 F

