%nprocshared=1
%mem=2GB
#HF/6-31G* nosymm scf=tight 

Mol

0 1
H	 -2.499100	 -0.730091	 -0.745082
O	 -2.347518	 -0.290803	 0.079804
C	 -1.184022	 0.487508	 -0.006784
C	 0.062599	 -0.378592	 0.031606
H	 -1.176523	 1.099369	 -0.904519
H	 -1.187323	 1.153111	 0.844927
O	 0.317891	 -0.822811	 -1.263491
H	 -0.089828	 -1.224920	 0.704269
H	 0.897941	 0.200533	 0.420711
C	 1.460602	 -1.608594	 -1.389579
H	 1.390478	 -2.512341	 -0.787122
H	 1.552150	 -1.887468	 -2.430132
H	 2.352962	 -1.062717	 -1.090406

1 2 3 5 F

10 7 4 8 F

4 7 10 13 F

