%nprocshared=24
%mem=2GB
#HF/6-31G* nosymm scf=tight 

Mol

0 1
H	 -2.745760	 -2.035135	 2.807639
C	 -2.563981	 -1.490226	 1.901654
C	 -1.367380	 -1.499035	 1.361694
H	 -3.377199	 -0.945832	 1.457950
O	 -1.081000	 -0.797000	 0.234000
H	 -0.542786	 -2.042673	 1.786822
C	 0.151000	 -0.997000	 -0.369000
C	 1.143000	 0.077000	 0.017000
H	 0.082000	 -1.019000	 -1.451000
H	 0.537000	 -1.944000	 -0.023000
F	 0.942633	 0.429544	 1.278564
F	 2.391066	 -0.347800	 -0.086844
F	 1.021272	 1.154467	 -0.729697

11 8 7 9 F

6 3 2 1 F

6 3 5 7 F

