%nprocshared=1
%mem=2GB
#HF/6-31G* nosymm scf=tight 

Mol

0 1
O	 0.391030	 1.298905	 0.000133
C	 0.503002	 0.111612	 0.000005
C	 -0.702327	 -0.811998	 -0.000075
C	 1.863306	 -0.554493	 0.000030
C	 -0.805002	 -1.681742	 -1.247133
H	 -0.652293	 -1.426351	 0.897053
H	 -1.593400	 -0.198136	 0.117940
H	 0.069442	 -2.311973	 -1.353788
H	 -1.681650	 -2.318724	 -1.192363
H	 -0.880010	 -1.072870	 -2.139808
H	 1.974395	 -1.189404	 -0.874166
H	 2.638695	 0.198920	 -0.000196
H	 1.974487	 -1.188655	 0.874727
