%nprocshared=1
%mem=2GB
#HF/6-31G* nosymm scf=tight 

Mol

0 1
H	 -2.273092	 1.173159	 0.000295
O	 -1.438904	 1.618192	 0.000114
C	 -0.409536	 0.736003	 0.000030
C	 0.760571	 1.145991	 -0.619613
C	 -0.506620	 -0.522981	 0.588652
H	 0.792665	 2.124853	 -1.060963
C	 1.852565	 0.300119	 -0.659097
C	 0.606825	 -1.352583	 0.533985
C	 -1.784225	 -0.968496	 1.264114
H	 2.757483	 0.624200	 -1.141372
C	 1.781449	 -0.957133	 -0.080964
H	 0.547909	 -2.328438	 0.984075
H	 -2.624485	 -0.987297	 0.573062
H	 -1.677181	 -1.969241	 1.662896
H	 -2.052601	 -0.319490	 2.095235
H	 2.626865	 -1.620267	 -0.107915
