%nprocshared=1
%mem=2GB
#HF/6-31G* nosymm scf=tight 

Mol

0 1
H	 1.256382	 1.796778	 2.940040
O	 1.869911	 1.708877	 2.223412
C	 1.291011	 1.128167	 1.153445
C	 2.081835	 0.936955	 0.024739
C	 -0.031307	 0.728692	 1.148428
H	 3.106642	 1.256016	 0.053530
C	 1.546918	 0.347837	 -1.102146
H	 -0.663394	 0.863765	 2.003851
C	 -0.536158	 0.140425	 0.000000
H	 2.164607	 0.204045	 -1.969119
C	 0.220734	 -0.062266	 -1.132068
N	 -1.935604	 -0.280333	 0.000000
H	 -0.208425	 -0.520681	 -1.998718
O	 -2.161694	 -1.452901	 0.000000
O	 -2.770341	 0.571417	 0.000000

4 3 2 1 F

