%nprocshared=24
%mem=2GB
#HF/6-31G* nosymm scf=tight 

Mol

0 1
H	 -3.444501	 -2.668578	 1.590126
C	 -2.969659	 -1.800496	 1.175716
C	 -1.735141	 -1.877233	 0.735752
H	 -3.525734	 -0.882050	 1.133322
O	 -1.081000	 -0.797000	 0.234000
H	 -1.164658	 -2.788279	 0.763564
C	 0.151000	 -0.997000	 -0.369000
C	 1.143000	 0.077000	 0.017000
H	 0.082000	 -1.019000	 -1.451000
H	 0.537000	 -1.944000	 -0.023000
F	 0.942633	 0.429544	 1.278564
F	 2.391066	 -0.347800	 -0.086844
F	 1.021272	 1.154467	 -0.729697

11 8 7 9 F

6 3 2 1 F

6 3 5 7 F

