%nprocshared=1
%mem=2GB
#HF/6-31G* nosymm scf=tight 

Mol

0 1
H	 2.462945	 -1.853951	 1.525540
C	 1.907476	 -1.464605	 0.676952
C	 0.802146	 -0.526169	 1.150978
H	 1.479742	 -2.298945	 0.132265
H	 2.615912	 -0.968014	 0.022696
N	 -0.000257	 -0.000071	 0.054619
H	 0.151517	 -1.082295	 1.814140
H	 1.228127	 0.282740	 1.751723
C	 -1.363055	 0.315058	 0.462241
C	 0.648864	 1.111388	 -0.627991
C	 -2.412078	 -0.285320	 -0.468531
H	 -1.482241	 1.391144	 0.451970
H	 -1.549931	 -0.001174	 1.492681
C	 0.240420	 1.224753	 -2.093447
H	 1.719762	 0.956941	 -0.589533
H	 0.459779	 2.056777	 -0.111006
H	 -2.262839	 0.075384	 -1.480151
H	 -2.369300	 -1.368867	 -0.491760
H	 -3.410332	 -0.003975	 -0.144961
H	 0.482640	 0.308276	 -2.619787
H	 -0.822636	 1.405246	 -2.211291
H	 0.766808	 2.046786	 -2.570421
