%nprocshared=1
%mem=2GB
#HF/6-31G* nosymm scf=tight 

Mol

0 1
O	 0.075831	 1.314145	 -0.517119
C	 0.788116	 1.716284	 -1.379704
C	 1.955818	 0.967879	 -1.974873
O	 0.640172	 2.906476	 -1.947763
C	 1.631213	 -0.480457	 -2.327860
H	 2.284791	 1.522137	 -2.849681
H	 2.775085	 1.025640	 -1.263407
C	 0.396371	 -0.597017	 -3.222645
H	 1.479247	 -1.045821	 -1.413826
H	 2.487936	 -0.929015	 -2.820943
C	 -0.911873	 -0.341887	 -2.472135
H	 0.478149	 0.107332	 -4.049205
H	 0.364288	 -1.588888	 -3.671024
C	 -0.924409	 0.995396	 -1.732697
H	 -1.082290	 -1.148681	 -1.762782
H	 -1.741322	 -0.373953	 -3.175074
H	 -0.126444	 1.044546	 -0.997136
H	 -1.864277	 1.147214	 -1.211111
H	 -0.790241	 1.825461	 -2.420667
C	 1.792514	 3.724689	 -2.034891
H	 2.180449	 3.940881	 -1.049855
H	 1.472688	 4.634305	 -2.518819
H	 2.560106	 3.239076	 -2.620117

15 11 8 12 F

9 5 8 12 F

1 2 3 6 F

9 5 3 6 F

