%nprocshared=1
%mem=2GB
#HF/6-31G* nosymm scf=tight 

Mol

0 1
H	 3.101475	 0.349561	 1.529635
C	 2.577660	 -0.258918	 0.798955
C	 1.430049	 -1.033297	 1.445872
H	 2.210500	 0.402597	 0.019896
H	 3.302244	 -0.931655	 0.348175
C	 0.673749	 -1.907883	 0.443414
H	 0.740957	 -0.333533	 1.907483
H	 1.824337	 -1.660023	 2.244273
C	 1.585195	 -2.753427	 -0.446299
H	 -0.007339	 -2.563659	 0.974187
H	 0.066649	 -1.271277	 -0.196277
C	 2.276744	 -3.900662	 0.275404
H	 1.002346	 -3.199764	 -1.250563
H	 2.334355	 -2.134433	 -0.934950
C	 3.475324	 -4.538016	 -0.405696
O	 1.886004	 -4.302668	 1.329975
C	 3.142513	 -5.197708	 -1.752249
H	 3.876922	 -5.272524	 0.282004
H	 4.234339	 -3.772788	 -0.557378
C	 3.906992	 -6.506058	 -1.962969
H	 2.073565	 -5.394231	 -1.800676
H	 3.371148	 -4.517137	 -2.568350
C	 3.584233	 -7.172245	 -3.299729
H	 3.675183	 -7.191428	 -1.151430
H	 4.975620	 -6.311267	 -1.903941
H	 2.526789	 -7.408725	 -3.374670
H	 3.837980	 -6.523738	 -4.133494
H	 4.139105	 -8.097216	 -3.419829

10 6 3 2 F

16 12 15 17 F

