%nprocshared=1
%mem=2GB
#HF/6-31G* nosymm scf=tight 

Mol

0 1
H	 2.946660	 -0.859950	 -1.510857
C	 2.230078	 -1.083299	 -0.728838
C	 1.322923	 0.120767	 -0.479465
H	 1.658641	 -1.951812	 -1.041118
H	 2.786757	 -1.350189	 0.164175
C	 0.306652	 -0.176050	 0.621399
H	 0.789971	 0.380783	 -1.388190
H	 1.912321	 0.982272	 -0.188464
N	 -1.068537	 -0.011044	 0.085269
H	 0.372515	 -1.192590	 0.973735
H	 0.391664	 0.520566	 1.441230
O	 -1.656956	 -0.997225	 -0.235017
O	 -1.478635	 1.104830	 -0.018026

12 9 6 3 F

