%nprocshared=1
%mem=2GB
#HF/6-31G* nosymm scf=tight 
prop=(read,field)

Mol

0 1
H	 0.704845	 1.200016	 0.892000
C	 0.591444	 0.609902	 -0.000000
Cl	 -1.043510	 -0.071779	 0.000000
F	 1.498454	 -0.378997	 0.000000
H	 0.704845	 1.200016	 -0.892000

@grid.dat /N
