%nprocshared=1
%mem=2GB
#HF/6-31G* nosymm scf=tight 

Mol

0 1
O	 -0.987039	 -1.415352	 -0.025662
C	 -0.677512	 -0.254184	 -0.049828
C	 -1.749462	 0.819598	 -0.049024
N	 0.623947	 0.147590	 -0.102813
H	 -1.685303	 1.445948	 -0.932004
H	 -2.706268	 0.320153	 -0.037937
H	 -1.672694	 1.459234	 0.823647
C	 1.665360	 -0.855771	 0.000151
C	 1.058581	 1.513429	 0.091665
H	 2.465253	 -0.618490	 -0.692587
H	 1.257730	 -1.821716	 -0.242189
H	 2.081488	 -0.891645	 1.004627
H	 1.949762	 1.689168	 -0.499056
H	 0.309112	 2.218386	 -0.231238
H	 1.300631	 1.718427	 1.132914

8 4 2 3 F

