%nprocshared=1
%mem=2GB
#HF/6-31G* nosymm scf=tight 

Mol

0 1
H	 -3.571158	 0.540474	 0.139285
O	 -3.106200	 -0.271124	 -0.011510
C	 -1.775819	 -0.076055	 -0.001477
C	 -0.964344	 -0.552111	 1.024135
C	 -1.225748	 0.627969	 -1.065356
H	 -1.398706	 -1.096849	 1.845050
C	 0.394734	 -0.322062	 0.981664
H	 -1.872386	 0.984932	 -1.844270
C	 0.135253	 0.850030	 -1.093645
H	 1.032687	 -0.683587	 1.766148
C	 0.960889	 0.381183	 -0.076721
H	 0.562029	 1.395550	 -1.917861
C	 2.415836	 0.626563	 -0.120652
O	 3.002523	 1.065334	 -1.060883
H	 2.954884	 0.373001	 0.798206

7 11 13 14 F

