%nprocshared=24
%mem=2GB
#HF/6-31G* nosymm scf=tight 

Mol

0 1
H	 -3.777090	 -2.595235	 0.886282
C	 -3.155707	 -1.728331	 0.771662
C	 -1.915682	 -1.861684	 0.361729
H	 -3.572110	 -0.764358	 0.999535
O	 -1.081000	 -0.797000	 0.234000
H	 -1.482950	 -2.816571	 0.122640
C	 0.151000	 -0.997000	 -0.369000
C	 1.143000	 0.077000	 0.017000
H	 0.082000	 -1.019000	 -1.451000
H	 0.537000	 -1.944000	 -0.023000
F	 0.942633	 0.429544	 1.278564
F	 2.391066	 -0.347800	 -0.086844
F	 1.021272	 1.154467	 -0.729697

11 8 7 9 F

6 3 2 1 F

6 3 5 7 F

