%nprocshared=1
%mem=2GB
#HF/6-31G* nosymm scf=tight 

Mol

0 1
H	 -1.087310	 1.934189	 1.455840
C	 -0.888895	 1.081337	 0.837228
C	 -1.918698	 0.465389	 0.051329
C	 0.339982	 0.552907	 0.773661
H	 -2.916291	 0.866605	 0.080954
C	 -1.646413	 -0.600572	 -0.714864
H	 1.165212	 0.954523	 1.330533
N	 0.640212	 -0.532897	 -0.000111
H	 -2.390304	 -1.086809	 -1.315326
C	 -0.309095	 -1.175373	 -0.783895
C	 2.010177	 -1.032049	 0.000042
O	 -0.023701	 -2.132266	 -1.459995
H	 2.187698	 -1.635381	 -0.882279
H	 2.677579	 -0.189247	 -0.001871
H	 2.188882	 -1.632203	 0.884288
