%nprocshared=1
%mem=2GB
#HF/6-31G* nosymm scf=tight 

Mol

0 1
H	 1.814916	 -6.729782	 -0.298730
C	 1.748708	 -5.682363	 -0.063537
C	 1.162868	 -5.276713	 1.126163
C	 2.249305	 -4.742575	 -0.950742
H	 0.775028	 -6.006590	 1.813351
C	 1.078101	 -3.929766	 1.427877
H	 2.703091	 -5.058905	 -1.872490
C	 2.165550	 -3.393721	 -0.650822
H	 0.628108	 -3.597640	 2.343775
C	 1.578983	 -2.983935	 0.540722
H	 2.551620	 -2.663030	 -1.334460
C	 1.463013	 -1.545621	 0.912827
O	 1.970282	 -0.730723	 0.000018
O	 0.967265	 -1.157650	 1.924049
C	 3.377318	 -0.566646	 -0.000065
H	 3.695437	 -0.028981	 -0.881264
H	 3.789299	 -1.563704	 0.000236
H	 3.695516	 -0.028316	 0.880770

12 13 15 16 F

13 12 10 6 F

