%nprocshared=1
%mem=2GB
#HF/6-31G* nosymm scf=tight 

Mol

0 1
O	 0.027013	 0.818016	 -1.543889
C	 0.788116	 1.716284	 -1.379704
C	 2.030214	 1.669790	 -0.523610
O	 0.640172	 2.906476	 -1.947763
C	 2.880795	 0.424839	 -0.756530
H	 2.595803	 2.575995	 -0.722646
H	 1.712826	 1.741513	 0.513135
C	 3.228908	 0.227576	 -2.232661
H	 2.350564	 -0.445506	 -0.382974
H	 3.790824	 0.498480	 -0.169390
C	 2.042418	 -0.258500	 -3.066827
H	 3.598538	 1.164138	 -2.647657
H	 4.045691	 -0.487168	 -2.321480
C	 0.812193	 0.638164	 -2.933442
H	 1.784793	 -1.272257	 -2.768389
H	 2.337296	 -0.314309	 -4.112327
H	 0.471826	 0.686606	 -1.902900
H	 -0.011198	 0.267824	 -3.536208
H	 1.028884	 1.652358	 -3.257116
C	 1.792514	 3.724689	 -2.034891
H	 2.180449	 3.940881	 -1.049855
H	 1.472688	 4.634305	 -2.518819
H	 2.560106	 3.239076	 -2.620117

15 11 8 12 F

9 5 8 12 F

1 2 3 6 F

9 5 3 6 F

