%nprocshared=1
%mem=2GB
#HF/6-31G* nosymm scf=tight 

Mol

0 1
O	 -0.389695	 0.092980	 2.453461
C	 -0.833093	 0.610524	 1.479901
C	 -1.689737	 1.847648	 1.474314
O	 -0.632575	 0.154573	 0.251549
H	 -2.647636	 1.627754	 1.017121
H	 -1.833848	 2.193421	 2.486988
H	 -1.213112	 2.620317	 0.882227
C	 0.160891	 -1.019931	 0.106212
C	 1.589627	 -0.672828	 0.480843
H	 0.089836	 -1.367806	 -0.916050
H	 -0.238459	 -1.792301	 0.749618
C	 2.501971	 -0.416641	 -0.720155
H	 1.983316	 -1.499526	 1.068646
H	 1.580383	 0.197497	 1.131770
C	 1.877874	 0.537772	 -1.737308
H	 3.447053	 -0.005544	 -0.370985
H	 2.734403	 -1.360588	 -1.202128
H	 2.543092	 0.702417	 -2.578979
H	 1.664053	 1.504775	 -1.290695
H	 0.944785	 0.140298	 -2.126458

16 12 9 8 F

2 4 8 10 F

1 2 4 8 F

