%nprocshared=1
%mem=2GB
#HF/6-31G* nosymm scf=tight 

Mol

0 1
O	 -0.488453	 0.057968	 1.132425
C	 -0.451170	 -1.129930	 1.097049
C	 0.801727	 -1.959116	 0.945507
O	 -1.528589	 -1.897310	 1.185968
C	 1.124911	 -2.785238	 2.184071
H	 1.613075	 -1.280220	 0.700432
H	 0.669725	 -2.590969	 0.072237
H	 1.272053	 -2.149836	 3.048928
H	 2.030738	 -3.360307	 2.024106
H	 0.320287	 -3.472711	 2.414906
C	 -2.191857	 -2.242975	 -0.025639
C	 -2.823848	 -0.980758	 -0.573093
H	 -2.932520	 -3.003055	 0.182404
H	 -1.471225	 -2.660891	 -0.715296
H	 -3.538917	 -0.571683	 0.131530
H	 -3.342554	 -1.199720	 -1.500804
H	 -2.069691	 -0.227588	 -0.771180

2 4 11 13 F

4 2 3 6 F

