%nprocshared=1
%mem=2GB
#HF/6-31G* nosymm scf=tight opt=ModRedundant

Mol

0 1
H	 -1.821000	 -2.218000	 -0.014000
C	 -1.415000	 -1.222000	 -0.022000
N	 -0.127000	 -1.098000	 -0.269000
C	 -2.223000	 -0.123000	 0.214000
C	 0.378000	 0.125000	 -0.285000
H	 -3.273000	 -0.236000	 0.414000
N	 -1.732000	 1.100000	 0.202000
C	 -0.444000	 1.222000	 -0.046000
C	 1.856000	 0.270000	 -0.549000
H	 -0.043000	 2.220000	 -0.059000
C	 2.712000	 -0.228000	 0.620000
H	 2.099000	 -0.298000	 -1.441000
H	 2.086000	 1.310000	 -0.759000
H	 3.767000	 -0.135000	 0.387000
H	 2.500000	 -1.269000	 0.831000
H	 2.515000	 0.346000	 1.521000
