%nprocshared=1
%mem=2GB
#HF/6-31G* nosymm scf=tight 

Mol

0 1
H	 -1.070890	 -1.366565	 0.180696
O	 -1.422729	 -0.573567	 -0.196946
C	 -0.731407	 0.539437	 0.309156
C	 0.680193	 0.672443	 -0.251532
H	 -1.319765	 1.404033	 0.030086
H	 -0.700012	 0.506517	 1.397677
C	 1.768237	 0.680995	 0.822614
H	 0.856076	 -0.146012	 -0.943517
H	 0.732394	 1.593604	 -0.827969
H	 1.791818	 -0.256129	 1.370736
H	 2.749937	 0.818684	 0.381849
H	 1.612452	 1.486168	 1.536540

1 2 3 4 F

