%nprocshared=1
%mem=2GB
#HF/6-31G* nosymm scf=tight 

Mol

0 1
H	 -1.483591	 -0.165004	 -0.037208
N	 -0.626943	 -0.667432	 -0.000092
C	 -0.461600	 -1.802546	 -0.879236
C	 0.325755	 -0.252874	 0.869779
H	 -1.399443	 -2.062275	 -1.358817
H	 -0.126707	 -2.639897	 -0.288965
H	 0.276308	 -1.595488	 -1.647123
C	 1.674978	 -0.919497	 0.690344
O	 0.127974	 0.574320	 1.716447
H	 2.068026	 -0.726742	 -0.302990
H	 2.359261	 -0.526889	 1.427442
H	 1.590945	 -1.994555	 0.814939

4 2 3 5 F

