%nprocshared=1
%mem=2GB
#HF/6-31G* nosymm scf=tight 

Mol

0 1
H	 0.520913	 -3.355335	 -0.750069
O	 0.895837	 -2.618051	 -0.278264
C	 0.102382	 -1.563045	 -0.462125
C	 0.624473	 -0.343591	 0.253101
O	 -0.886133	 -1.623171	 -1.118051
C	 -0.265902	 0.883932	 0.072916
H	 0.740303	 -0.614115	 1.297502
H	 1.628992	 -0.158063	 -0.118751
C	 -1.728698	 0.646073	 0.462102
H	 -0.209144	 1.219470	 -0.958188
H	 0.135059	 1.692851	 0.673903
C	 -2.104131	 1.103284	 1.874535
H	 -1.931083	 -0.419136	 0.377659
H	 -2.381046	 1.134813	 -0.260208
C	 -1.621266	 2.520917	 2.180532
H	 -3.185121	 1.057337	 1.990267
H	 -1.687905	 0.422599	 2.612645
H	 -1.897254	 2.821719	 3.186347
H	 -2.052744	 3.239535	 1.489703
H	 -0.540356	 2.592869	 2.098720

16 12 9 6 F

7 4 6 10 F

5 3 4 7 F

1 2 3 5 F

