%nprocshared=1
%mem=2GB
#HF/6-31G* nosymm scf=tight 

Mol

0 1
O	 1.157415	 1.571756	 -0.259058
C	 0.788116	 1.716284	 -1.379704
C	 0.424964	 0.605705	 -2.335006
O	 0.640172	 2.906476	 -1.947763
C	 -0.484576	 -0.452065	 -1.717347
H	 -0.038074	 1.063975	 -3.204661
H	 1.353241	 0.167410	 -2.691262
C	 -1.738419	 0.156602	 -1.087695
H	 0.071003	 -1.008654	 -0.969196
H	 -0.766507	 -1.170945	 -2.480259
C	 -1.454655	 0.880219	 0.229770
H	 -2.195350	 0.854199	 -1.788101
H	 -2.475328	 -0.626274	 -0.914624
C	 -0.362724	 1.941891	 0.104107
H	 -1.165693	 0.152178	 0.984487
H	 -2.370399	 1.344406	 0.589051
H	 0.576258	 1.502500	 -0.220643
H	 -0.184833	 2.436932	 1.053707
H	 -0.637860	 2.704011	 -0.619623
C	 1.792514	 3.724689	 -2.034891
H	 2.180449	 3.940881	 -1.049855
H	 1.472688	 4.634305	 -2.518819
H	 2.560106	 3.239076	 -2.620117

15 11 8 12 F

9 5 8 12 F

1 2 3 6 F

9 5 3 6 F

