%nprocshared=1
%mem=2GB
#HF/6-31G* nosymm scf=tight 

Mol

0 1
H	 -2.798360	 -0.862255	 -0.071053
N	 -1.863561	 -0.715187	 0.256814
C	 -1.344686	 0.554728	 -0.219830
H	 -1.300452	 -1.461917	 -0.101532
C	 -0.985101	 1.439996	 0.954961
H	 -0.465962	 0.457792	 -0.858930
H	 -2.117152	 1.048968	 -0.801041
O	 -2.161051	 1.750597	 1.646160
H	 -0.287771	 0.924779	 1.615204
H	 -0.507581	 2.348787	 0.595367
C	 -1.986904	 2.633864	 2.707802
H	 -2.955040	 2.796076	 3.161781
H	 -1.311103	 2.226508	 3.457692
H	 -1.591291	 3.589235	 2.369325

8 5 3 6 F

5 8 11 13 F

11 8 5 3 F

