%nprocshared=1
%mem=2GB
#HF/6-31G* nosymm scf=tight 

Mol

0 1
H	 -0.000158	 1.970498	 0.756846
O	 -0.000074	 1.880206	 -0.189275
C	 -0.000015	 0.544847	 -0.545111
C	 -0.562476	 -0.296330	 0.595962
C	 1.396886	 0.127014	 -0.992417
H	 -0.660866	 0.428823	 -1.391229
F	 -1.796098	 0.080292	 0.856497
F	 -0.580872	 -1.580315	 0.307168
F	 0.151408	 -0.131397	 1.698125
F	 1.763798	 0.849612	 -2.029125
F	 1.450835	 -1.141260	 -1.340193
F	 2.279718	 0.328184	 -0.027162

7 4 3 6 F

