%nprocshared=1
%mem=2GB
#HF/6-31G* nosymm scf=tight 

Mol

0 1
H	 5.847966	 -4.172040	 4.285819
C	 5.881164	 -4.835512	 3.427201
C	 6.927870	 -4.375075	 2.413504
H	 6.103491	 -5.834746	 3.789754
H	 4.888119	 -4.856212	 2.986483
C	 6.996079	 -5.285874	 1.185659
H	 7.900656	 -4.341136	 2.893230
H	 6.697956	 -3.359327	 2.095560
C	 5.629170	 -5.608192	 0.581557
H	 7.617470	 -4.825709	 0.425550
H	 7.476100	 -6.221490	 1.463587
C	 4.964761	 -4.436609	 -0.126394
H	 5.732212	 -6.399736	 -0.159125
H	 4.952566	 -5.999814	 1.337874
C	 3.475324	 -4.538016	 -0.405696
O	 5.588405	 -3.477483	 -0.469250
C	 3.142513	 -5.197708	 -1.752249
H	 3.077758	 -3.530724	 -0.373804
H	 3.010537	 -5.105855	 0.398180
C	 3.906992	 -6.506058	 -1.962969
H	 2.073565	 -5.394231	 -1.800676
H	 3.371148	 -4.517137	 -2.568350
C	 3.584233	 -7.172245	 -3.299729
H	 3.675183	 -7.191428	 -1.151430
H	 4.975620	 -6.311267	 -1.903941
H	 2.526789	 -7.408725	 -3.374670
H	 3.837980	 -6.523738	 -4.133494
H	 4.139105	 -8.097216	 -3.419829

10 6 3 2 F

12 15 17 21 F

