%nprocshared=1
%mem=2GB
#HF/6-31G* nosymm scf=tight 

Mol

0 1
H	 3.148058	 -0.626196	 5.891030
C	 2.814321	 -0.803618	 4.884091
C	 1.916167	 -1.827700	 4.623854
C	 3.283514	 -0.007772	 3.850930
H	 1.553069	 -2.444175	 5.426029
C	 1.487509	 -2.055217	 3.328875
H	 3.979710	 0.785604	 4.054572
C	 2.855804	 -0.233682	 2.553855
H	 0.792856	 -2.843098	 3.108938
C	 1.955691	 -1.259259	 2.289751
H	 3.216287	 0.379727	 1.751295
C	 1.463013	 -1.545621	 0.912827
O	 1.970282	 -0.730723	 0.000018
O	 0.692632	 -2.414963	 0.648977
C	 3.377318	 -0.566646	 -0.000065
H	 3.695437	 -0.028981	 -0.881264
H	 3.789299	 -1.563704	 0.000236
H	 3.695516	 -0.028316	 0.880770

12 13 15 16 F

13 12 10 6 F

