%nprocshared=1
%mem=2GB
#HF/6-31G* nosymm scf=tight 

Mol

0 1
H	 1.148083	 -1.049780	 0.784252
O	 1.319262	 -0.618148	 -0.041729
C	 0.709265	 0.639550	 -0.033818
C	 -0.771925	 0.608805	 -0.305315
H	 1.207879	 1.222289	 -0.799979
H	 0.888518	 1.150657	 0.911519
C	 -1.454485	 -0.452165	 -0.686389
H	 -1.279238	 1.551438	 -0.169077
H	 -0.979007	 -1.402308	 -0.849421
H	 -2.513984	 -0.402188	 -0.862290

5 3 4 7 F

3 4 7 9 F

