%nprocshared=1
%mem=2GB
#HF/6-31G* nosymm scf=tight 
prop=(read,field)

Mol

0 1
H	 3.729851	 -0.928316	 -0.070625
O	 2.826396	 -1.159240	 0.122244
C	 2.078107	 -0.067581	 -0.035108
C	 0.624853	 -0.343613	 0.253084
O	 2.543345	 0.974804	 -0.363746
C	 -0.265522	 0.883910	 0.072899
H	 0.324396	 -1.163871	 -0.390558
H	 0.565404	 -0.726133	 1.268907
C	 -1.728318	 0.646051	 0.462085
H	 -0.208764	 1.219448	 -0.958205
H	 0.135439	 1.692829	 0.673886
C	 -2.482080	 -0.343095	 -0.431442
H	 -2.244885	 1.602628	 0.432413
H	 -1.778952	 0.308326	 1.496268
C	 -3.960166	 -0.461047	 -0.060192
H	 -2.394654	 -0.026833	 -1.468929
H	 -2.024470	 -1.327169	 -0.371663
H	 -4.472346	 -1.168026	 -0.705301
H	 -4.464766	 0.496486	 -0.151506
H	 -4.080838	 -0.800962	 0.964568

@grid.dat /N
