%nprocshared=1
%mem=2GB
#HF/6-31G* nosymm scf=tight 

Mol

0 1
H	 2.462501	 2.591893	 1.463803
O	 1.520370	 2.531132	 1.536643
C	 1.038836	 1.529315	 0.769259
C	 1.862970	 0.723809	 -0.006154
C	 -0.329030	 1.318707	 0.773572
H	 2.927214	 0.889390	 -0.008082
C	 1.319309	 -0.290796	 -0.776012
H	 -0.966733	 1.940172	 1.372063
C	 -0.865228	 0.300799	 0.000000
H	 1.967131	 -0.907645	 -1.372000
C	 -0.046627	 -0.508388	 -0.777740
C	 -2.333960	 0.069074	 0.000000
H	 -0.471047	 -1.295908	 -1.374973
O	 -2.847347	 -1.003763	 0.000000
H	 -2.943845	 0.977528	 0.000000

4 3 2 1 F

