%nprocshared=1
%mem=2GB
#HF/6-31G* nosymm scf=tight 

Mol

0 1
H	 -2.273092	 1.173159	 0.000295
O	 -1.438904	 1.618192	 0.000114
C	 -0.409536	 0.736003	 0.000030
C	 0.202717	 0.494892	 1.219953
C	 0.023337	 0.095557	 -1.159018
H	 -0.162546	 1.009981	 2.089008
C	 1.259137	 -0.392500	 1.297550
C	 1.087515	 -0.791547	 -1.051501
C	 -0.645904	 0.360092	 -2.489109
H	 1.729856	 -0.575193	 2.247045
C	 1.708486	 -1.042292	 0.159204
H	 1.433859	 -1.294403	 -1.937801
H	 -0.573568	 1.406101	 -2.779931
H	 -0.180033	 -0.221848	 -3.274148
H	 -1.700361	 0.091950	 -2.474355
H	 2.529628	 -1.733756	 0.212145
