%nprocshared=1
%mem=2GB
#HF/6-31G* nosymm scf=tight 

Mol

0 1
H	 -0.314752	 3.001425	 -0.790005
C	 0.411227	 2.338203	 -0.303388
C	 0.065331	 0.871482	 -0.349150
O	 1.385684	 2.789984	 0.204596
C	 -1.029704	 0.496158	 0.659568
H	 0.971548	 0.301008	 -0.181090
H	 -0.285648	 0.654535	 -1.357073
C	 -1.570139	 -0.921139	 0.465604
H	 -1.842537	 1.209348	 0.566444
H	 -0.643266	 0.607239	 1.670492
H	 -1.992746	 -1.043171	 -0.526887
H	 -2.348771	 -1.139733	 1.188976
H	 -0.791395	 -1.668810	 0.583656

6 3 5 9 F

