%nprocshared=24
%mem=2GB
#HF/6-31G* nosymm scf=tight 

Mol

0 1
H	 -2.463887	 -1.404751	 3.174456
C	 -2.393282	 -1.145213	 2.135980
C	 -1.224516	 -1.150904	 1.538115
H	 -3.292956	 -0.884230	 1.609638
O	 -0.474922	 -2.279445	 1.432930
H	 -0.801674	 -0.273787	 1.081935
C	 0.817836	 -2.166133	 0.945724
C	 0.837536	 -2.029599	 -0.560100
H	 1.436206	 -3.015190	 1.215334
H	 1.250324	 -1.270236	 1.365063
F	 -0.206719	 -1.313953	 -0.951710
F	 1.927780	 -1.411584	 -0.982397
F	 0.778066	 -3.198113	 -1.163712

11 8 7 9 F

3 5 7 9 F

6 3 5 7 F

