%nprocshared=1
%mem=2GB
#HF/6-31G* nosymm scf=tight 

Mol

0 1
H	 -0.216825	 0.021369	 -3.357402
C	 0.374198	 0.036393	 -2.447010
C	 -0.521757	 -0.028637	 -1.217342
H	 0.969602	 0.942322	 -2.434777
H	 1.053364	 -0.811668	 -2.481329
N	 0.263400	 0.031178	 0.000000
H	 -1.199035	 0.820290	 -1.219355
H	 -1.147901	 -0.924895	 -1.265384
C	 -0.521757	 -0.028637	 1.217342
H	 0.935769	 -0.712709	 0.000000
C	 -0.928628	 1.366611	 1.672079
H	 -1.412459	 -0.614759	 1.011190
H	 0.005508	 -0.540659	 2.028186
H	 -1.490542	 1.870239	 0.893636
H	 -1.541198	 1.318452	 2.566946
H	 -0.056199	 1.972767	 1.902502
