%nprocshared=1
%mem=2GB
#HF/6-31G* nosymm scf=tight 

Mol

0 1
H	 -2.095764	 0.435638	 -2.350391
C	 -2.795213	 1.048318	 -1.768139
C	 -2.660244	 0.921717	 -0.272021
O	 -3.583432	 1.744001	 -2.321751
C	 -2.982830	 -0.492378	 0.230502
H	 -1.658165	 1.225284	 0.007967
H	 -3.359783	 1.628209	 0.173142
C	 -4.457163	 -0.873821	 0.075124
H	 -2.367436	 -1.200443	 -0.316506
H	 -2.689020	 -0.580244	 1.275353
C	 -4.761788	 -2.289393	 0.569263
H	 -4.738985	 -0.786168	 -0.972130
H	 -5.080945	 -0.163769	 0.614810
C	 -6.233863	 -2.673409	 0.397578
H	 -4.128756	 -2.992860	 0.034345
H	 -4.489777	 -2.370501	 1.620840
C	 -6.604049	 -4.052915	 0.954351
H	 -6.496509	 -2.630404	 -0.658291
H	 -6.848680	 -1.925065	 0.893254
C	 -5.954001	 -5.228777	 0.223320
H	 -7.684158	 -4.165186	 0.902303
H	 -6.345723	 -4.096283	 2.010433
H	 -6.182089	 -5.201982	 -0.839001
H	 -4.874386	 -5.227135	 0.330105
H	 -6.317674	 -6.173992	 0.614864

6 3 5 8 F

3 5 8 12 F

12 8 11 14 F

8 11 14 18 F

20 17 14 18 F

