%nprocshared=1
%mem=2GB
#HF/6-31G* nosymm scf=tight opt=ModRedundant

Mol

0 1
H	 -4.183000	 -0.785000	 -0.000000
O	 -3.802000	 0.081000	 -0.000000
C	 -2.454000	 0.014000	 -0.000000
C	 -1.754000	 1.214000	 0.000000
C	 -1.765000	 -1.188000	 0.000000
H	 -2.300000	 2.138000	 -0.000000
C	 -0.373000	 1.205000	 0.000000
H	 -2.302000	 -2.121000	 0.000000
C	 -0.379000	 -1.194000	 -0.000000
H	 0.170000	 2.131000	 -0.000000
C	 0.311000	 0.000000	 -0.000000
H	 0.153000	 -2.126000	 -0.000000
Br	 2.210000	 -0.006000	 0.000000
