%nprocshared=1
%mem=2GB
#HF/6-31G* nosymm scf=tight 

Mol

0 1
O	 -2.821601	 1.309235	 -0.001213
C	 -2.668563	 0.129746	 -0.000350
C	 -3.801572	 -0.864014	 -0.000442
O	 -1.481751	 -0.454642	 0.000584
H	 -4.417280	 -0.689587	 -0.874708
H	 -3.443784	 -1.883046	 -0.000565
H	 -4.417179	 -0.689832	 0.873954
C	 -0.334255	 0.388708	 0.000906
C	 0.891947	 -0.504646	 0.000751
H	 -0.365390	 1.025305	 -0.873475
H	 -0.365484	 1.024911	 0.875569
C	 0.920869	 -1.443150	 1.208577
H	 1.781161	 0.119596	 -0.006951
H	 0.905746	 -1.081878	 -0.919615
C	 2.150840	 -2.352628	 1.227250
H	 0.895466	 -0.856902	 2.125503
H	 0.021867	 -2.057031	 1.213885
C	 2.180357	 -3.289050	 2.434357
H	 3.050123	 -1.740793	 1.222330
H	 2.176555	 -2.940875	 0.312715
H	 2.189524	 -2.729028	 3.365112
H	 3.063234	 -3.920358	 2.419721
H	 1.309596	 -3.938346	 2.448483

2 4 8 10 F

16 12 9 13 F

19 15 12 16 F

1 2 4 8 F

