%nprocshared=1
%mem=2GB
#HF/6-31G* nosymm scf=tight 

Mol

0 1
H	 -0.771889	 -1.644259	 -0.111702
N	 -0.626943	 -0.667432	 -0.000092
C	 -1.445694	 0.237908	 -0.773865
C	 0.325755	 -0.252874	 0.869779
H	 -2.014035	 -0.298904	 -1.526080
H	 -0.795877	 0.944319	 -1.264221
H	 -2.136647	 0.779003	 -0.136032
C	 1.674978	 -0.919497	 0.690344
O	 0.127974	 0.574320	 1.716447
H	 2.068026	 -0.726742	 -0.302990
H	 2.359261	 -0.526889	 1.427442
H	 1.590945	 -1.994555	 0.814939

4 2 3 5 F

