%nprocshared=1
%mem=2GB
#HF/6-31G* nosymm scf=tight 

Mol

0 1
H	 -0.351993	 -1.240732	 -0.763890
N	 -0.626943	 -0.667432	 -0.000092
C	 -2.024250	 -0.320476	 0.125890
C	 0.325755	 -0.252874	 0.869779
H	 -2.577232	 -0.606950	 -0.762451
H	 -2.096063	 0.747350	 0.253636
H	 -2.470193	 -0.808775	 0.985966
C	 1.674978	 -0.919497	 0.690344
O	 0.127974	 0.574320	 1.716447
H	 2.068026	 -0.726742	 -0.302990
H	 2.359261	 -0.526889	 1.427442
H	 1.590945	 -1.994555	 0.814939

4 2 3 5 F

