%nprocshared=1
%mem=2GB
#HF/6-31G* nosymm scf=tight 

Mol

0 1
O	 1.773924	 1.389595	 -0.801280
C	 0.788116	 1.716284	 -1.379704
C	 -0.444033	 0.864797	 -1.565842
O	 0.640172	 2.906476	 -1.947763
C	 -0.906906	 0.179729	 -0.283627
H	 -1.222122	 1.504400	 -1.973517
H	 -0.222124	 0.138023	 -2.342550
C	 -1.097258	 1.169206	 0.866922
H	 -0.183198	 -0.578685	 -0.002126
H	 -1.836578	 -0.346922	 -0.475088
C	 0.225431	 1.670907	 1.448857
H	 -1.682300	 2.020433	 0.521764
H	 -1.681101	 0.700049	 1.657429
C	 1.153894	 2.267829	 0.392026
H	 0.731104	 0.849631	 1.951790
H	 0.021329	 2.417049	 2.213549
H	 1.404595	 1.534514	 -0.369296
H	 2.082267	 2.614458	 0.835224
H	 0.688946	 3.114171	 -0.105808
C	 1.792514	 3.724689	 -2.034891
H	 2.180449	 3.940881	 -1.049855
H	 1.472688	 4.634305	 -2.518819
H	 2.560106	 3.239076	 -2.620117

15 11 8 12 F

9 5 8 12 F

1 2 3 6 F

9 5 3 6 F

