%nprocshared=1
%mem=2GB
#HF/6-31G* nosymm scf=tight 

Mol

0 1
H	 1.261358	 -1.605600	 -2.683710
C	 1.278337	 -0.859408	 -1.894315
C	 0.048068	 -1.000475	 -1.003440
H	 1.297734	 0.124447	 -2.349744
H	 2.202877	 -0.988899	 -1.342053
N	 -0.000257	 -0.000071	 0.054619
H	 -0.831031	 -0.883349	 -1.624604
H	 -0.003704	 -2.012764	 -0.592008
C	 -1.363055	 0.315058	 0.462241
C	 0.854918	 -0.341081	 1.183798
C	 -2.412078	 -0.285320	 -0.468531
H	 -1.482241	 1.391144	 0.451970
H	 -1.549931	 -0.001174	 1.492681
C	 1.365928	 0.887203	 1.930410
H	 1.712075	 -0.886825	 0.810168
H	 0.343680	 -1.016099	 1.876455
H	 -2.262839	 0.075384	 -1.480151
H	 -2.369300	 -1.368867	 -0.491760
H	 -3.410332	 -0.003975	 -0.144961
H	 1.923989	 1.527522	 1.256471
H	 0.559582	 1.474574	 2.356265
H	 2.019859	 0.589668	 2.745378
