%nprocshared=1
%mem=2GB
#HF/6-31G* nosymm scf=tight 

Mol

0 1
O	 0.328876	 1.440384	 -0.318527
C	 0.788116	 1.716284	 -1.379704
C	 1.596941	 0.789800	 -2.254516
O	 0.640172	 2.906476	 -1.947763
C	 0.979070	 -0.597252	 -2.402726
H	 1.713266	 1.274271	 -3.220162
H	 2.595806	 0.732652	 -1.830580
C	 -0.475632	 -0.537607	 -2.871070
H	 1.039795	 -1.119091	 -1.452892
H	 1.569134	 -1.178493	 -3.104360
C	 -1.437774	 -0.074829	 -1.775635
H	 -0.555772	 0.133586	 -3.724928
H	 -0.783863	 -1.519600	 -3.226831
C	 -1.032902	 1.259660	 -1.150760
H	 -1.491665	 -0.835503	 -0.999998
H	 -2.439968	 0.009390	 -2.189944
H	 -0.047819	 1.197610	 -0.696915
H	 -1.733988	 1.560763	 -0.378577
H	 -1.003214	 2.049175	 -1.896477
C	 1.792514	 3.724689	 -2.034891
H	 2.180449	 3.940881	 -1.049855
H	 1.472688	 4.634305	 -2.518819
H	 2.560106	 3.239076	 -2.620117

15 11 8 12 F

9 5 8 12 F

1 2 3 6 F

9 5 3 6 F

