%nprocshared=1
%mem=2GB
#HF/6-31G* nosymm scf=tight 

Mol

0 1
H	 1.148083	 -1.049780	 0.784252
O	 1.319262	 -0.618148	 -0.041729
C	 0.709265	 0.639550	 -0.033818
C	 1.083806	 1.514490	 -1.201199
H	 1.012511	 1.116896	 0.891052
H	 -0.375227	 0.543417	 0.006941
C	 2.019679	 1.241658	 -2.088029
H	 0.520348	 2.431257	 -1.282047
H	 2.612550	 0.347049	 -2.027960
H	 2.234516	 1.913698	 -2.899315

5 3 4 7 F

3 4 7 9 F

