%nprocshared=1
%mem=2GB
#HF/6-31G* nosymm scf=tight 

Mol

0 1
H	 -3.161837	 0.500524	 -0.000234
C	 -2.367097	 -0.232926	 -0.000000
O	 -1.158440	 0.455814	 -0.000122
H	 -2.468853	 -0.861886	 -0.882833
H	 -2.468942	 -0.861421	 0.883154
C	 -1.058687	 1.440634	 0.983775
C	 -0.933176	 0.767992	 2.339673
H	 -1.938669	 2.084837	 0.960682
H	 -0.191490	 2.074519	 0.793858
C	 -2.249034	 0.149041	 2.809034
H	 -0.162230	 0.006252	 2.275989
H	 -0.587403	 1.504363	 3.058629
H	 -2.600469	 -0.609088	 2.114657
H	 -2.130729	 -0.323233	 3.778469
H	 -3.028994	 0.899632	 2.902204

6 3 2 4 F

11 7 6 8 F

