%nprocshared=1
%mem=2GB
#HF/6-31G* nosymm scf=tight 

Mol

0 1
H	 -0.470820	 2.186197	 -0.859530
C	 0.308325	 1.449068	 -1.059184
N	 0.538815	 0.649616	 0.000000
O	 0.869340	 1.391615	 -2.113305
C	 1.521968	 -0.411503	 0.000000
H	 0.000642	 0.803304	 0.821605
H	 2.150599	 -0.357004	 -0.881901
H	 0.999455	 -1.354525	 0.000000
H	 2.150599	 -0.357004	 0.881901

1 2 3 6 F

