%nprocshared=1
%mem=2GB
#HF/6-31G* nosymm scf=tight 

Mol

0 1
H	 -3.504093	 -0.106700	 -0.789925
O	 -3.111742	 -0.217645	 0.065275
C	 -1.776530	 -0.069194	 0.008374
C	 -1.111675	 0.210696	 -1.181849
C	 -1.067774	 -0.206168	 1.195374
H	 -1.668529	 0.315296	 -2.097427
C	 0.260073	 0.352557	 -1.180222
H	 -1.603203	 -0.422078	 2.100344
C	 0.303825	 -0.061461	 1.180861
H	 0.785959	 0.568545	 -2.091207
C	 0.984182	 0.218375	 0.000000
H	 0.853541	 -0.167510	 2.100441
C	 2.452467	 0.370529	 0.000000
O	 3.228994	 -0.533774	 0.000000
H	 2.809473	 1.405765	 0.000000

5 3 2 1 F

