%nprocshared=1
%mem=2GB
#HF/6-31G* nosymm scf=tight 

Mol

0 1
H	 0.426310	 -1.993070	 0.945586
N	 -0.037837	 -1.115433	 0.814073
C	 -1.202508	 -1.271843	 -0.039264
H	 0.615504	 -0.494578	 0.377272
C	 -0.767115	 -1.566601	 -1.459364
H	 -1.880287	 -2.063195	 0.283814
H	 -1.762622	 -0.341767	 -0.035731
O	 -0.088814	 -0.446451	 -1.951562
H	 -0.113826	 -2.438633	 -1.479657
H	 -1.639925	 -1.778855	 -2.072867
C	 0.295968	 -0.548357	 -3.285402
H	 1.077210	 -1.293847	 -3.345427
H	 -0.534823	 -0.858547	 -3.916710
H	 0.680852	 0.397273	 -3.661511

8 5 3 6 F

6 3 2 4 F

11 8 5 3 F

