%nprocshared=1
%mem=2GB
#HF/6-31G* nosymm scf=tight 

Mol

0 1
H	 -0.216825	 0.021369	 -3.357402
C	 0.374198	 0.036393	 -2.447010
C	 -0.521757	 -0.028637	 -1.217342
H	 0.969602	 0.942322	 -2.434777
H	 1.053364	 -0.811668	 -2.481329
N	 0.263400	 0.031178	 0.000000
H	 -1.199035	 0.820290	 -1.219355
H	 -1.147901	 -0.924895	 -1.265384
C	 -0.521757	 -0.028637	 1.217342
H	 0.935769	 -0.712709	 0.000000
C	 -1.133618	 1.328513	 1.537994
H	 -1.314735	 -0.755318	 1.067313
H	 0.062918	 -0.380011	 2.073107
H	 -1.751805	 1.669587	 0.715269
H	 -1.745199	 1.275244	 2.433247
H	 -0.361973	 2.074523	 1.710285
