%nprocshared=1
%mem=2GB
#HF/6-31G* nosymm scf=tight 

Mol

0 1
H	 -2.646374	 -0.642757	 1.268656
C	 -2.083525	 -0.384536	 0.393091
O	 -0.807605	 -0.127164	 0.768327
F	 -2.118945	 -1.383102	 -0.486752
F	 -2.621877	 0.670592	 -0.209486
C	 -0.537304	 -0.046283	 2.122241
C	 -1.109491	 -1.302714	 2.765781
Cl	 -1.269808	 1.404395	 2.826646
H	 0.518312	 -0.011612	 2.327778
F	 -2.424808	 -1.281498	 2.725418
F	 -0.739397	 -1.337949	 4.030386
F	 -0.686615	 -2.395714	 2.178839

10 7 6 9 F

9 6 3 2 F

