%nprocshared=1
%mem=2GB
#HF/6-31G* nosymm scf=tight 

Mol

0 1
H	 -0.821032	 -1.655889	 0.000000
O	 -1.037828	 -0.728600	 0.000000
C	 0.100509	 -0.036935	 0.000000
C	 -0.048632	 1.285115	 0.697025
O	 1.094550	 -0.448980	 -0.501321
H	 -0.816829	 1.871328	 0.206165
H	 0.892377	 1.813504	 0.675622
H	 -0.362447	 1.123510	 1.721778
