%nprocshared=1
%mem=2GB
#HF/6-31G* nosymm scf=tight 

Mol

0 1
H	 1.314249	 -2.567387	 2.752588
O	 0.808890	 -2.191661	 2.045944
C	 0.109189	 -1.066562	 2.511950
C	 -0.687956	 -0.490861	 1.354851
H	 -0.560406	 -1.341804	 3.325701
H	 0.800293	 -0.318137	 2.897404
C	 0.198102	 0.111031	 0.262842
H	 -1.363572	 0.264257	 1.747366
H	 -1.308986	 -1.280564	 0.941127
C	 1.331804	 -0.827780	 -0.158768
H	 -0.416238	 0.359965	 -0.599011
H	 0.624910	 1.048670	 0.616660
C	 2.723619	 -0.410569	 0.329459
H	 1.342964	 -0.912588	 -1.244120
H	 1.116806	 -1.824343	 0.220779
C	 3.243875	 0.895854	 -0.272975
H	 3.424222	 -1.207124	 0.091250
H	 2.714788	 -0.329854	 1.414619
H	 3.251977	 0.848779	 -1.358681
H	 2.637085	 1.747371	 0.016682
H	 4.259473	 1.094070	 0.055697

2 3 4 8 F

8 4 7 10 F

16 13 10 14 F

1 2 3 5 F

