%nprocshared=1
%mem=2GB
#HF/6-31G* nosymm scf=tight 

Mol

0 1
H	 3.300686	 -0.424974	 0.019734
C	 2.240608	 -0.244311	 0.015492
C	 1.495484	 -0.535789	 -1.120594
C	 1.626680	 0.277256	 1.142007
H	 1.979279	 -0.940430	 -1.991073
C	 0.133897	 -0.304995	 -1.129436
H	 2.206316	 0.501471	 2.018931
C	 0.260640	 0.508339	 1.131874
H	 -0.459777	 -0.523410	 -1.997190
C	 -0.488460	 0.219100	 0.000000
H	 -0.222326	 0.913622	 2.004477
C	 -1.949954	 0.470334	 0.000000
O	 -2.781584	 -0.381627	 0.000000
H	 -2.238022	 1.526388	 0.000000
