%nprocshared=1
%mem=2GB
#HF/6-31G* nosymm scf=tight opt=ModRedundant

Mol

0 1
H	 -1.406000	 -0.000000	 -1.169000
C	 -1.364000	 -0.000000	 -0.087000
C	 0.073000	 -0.000000	 0.353000
H	 -1.867000	 -0.883000	 0.288000
H	 -1.867000	 0.883000	 0.288000
F	 0.705000	 -1.083000	 -0.135000
F	 0.705000	 1.083000	 -0.135000
H	 0.200000	 0.000000	 1.425000
