%nprocshared=1
%mem=2GB
#HF/6-31G* nosymm scf=tight 

Mol

0 1
H	 2.451652	 -2.178703	 0.543297
O	 2.773837	 -1.297590	 0.410870
C	 1.759943	 -0.431505	 0.213148
C	 1.341404	 -0.226752	 -1.097899
C	 1.142217	 0.240010	 1.250266
H	 1.837486	 -0.760524	 -1.886472
C	 0.308311	 0.647583	 -1.364961
H	 1.444212	 0.101391	 2.269634
C	 0.108090	 1.110681	 0.946403
H	 -0.008414	 0.799673	 -2.380053
C	 -0.328551	 1.334397	 -0.340004
N	 -0.541970	 1.818519	 2.047255
H	 -1.131325	 2.015808	 -0.531414
O	 -0.275233	 1.476916	 3.159995
O	 -1.300844	 2.695915	 1.770579

11 9 12 14 F

