%nprocshared=1
%mem=2GB
#HF/6-31G* nosymm scf=tight 

Mol

0 1
H	 -3.457960	 0.166880	 1.449720
O	 -3.367910	 -0.300316	 2.267454
C	 -3.043259	 -1.643282	 2.012310
C	 -1.609705	 -1.833855	 1.529264
H	 -3.184960	 -2.163733	 2.950780
H	 -3.740919	 -2.074362	 1.295219
C	 -1.314720	 -1.174099	 0.179978
H	 -0.935821	 -1.437562	 2.284379
H	 -1.414703	 -2.902721	 1.459510
C	 -0.173990	 -0.155436	 0.256657
H	 -2.214427	 -0.684702	 -0.182490
H	 -1.059328	 -1.941985	 -0.550411
C	 1.072648	 -0.639909	 1.006005
H	 0.106141	 0.144879	 -0.751403
H	 -0.543886	 0.742021	 0.748030
C	 0.874437	 -0.867428	 2.507147
H	 1.401512	 -1.573548	 0.554361
H	 1.883048	 0.071162	 0.852815
C	 2.113471	 -1.449887	 3.190502
H	 0.031523	 -1.539893	 2.660110
H	 0.610908	 0.067482	 2.995816
C	 1.920460	 -1.671981	 4.690197
H	 2.375387	 -2.393673	 2.717052
H	 2.959046	 -0.784096	 3.030473
H	 1.101835	 -2.359801	 4.882502
H	 2.814589	 -2.087022	 5.145069
H	 1.693365	 -0.739322	 5.199058

14 10 7 4 F

14 10 13 16 F

8 4 3 2 F

10 13 16 20 F

20 16 19 22 F

4 3 2 1 F

