%nprocshared=1
%mem=2GB
#HF/6-31G* nosymm scf=tight 

Mol

0 1
H	 -2.240291	 0.559484	 0.604969
C	 -2.008299	 -0.205926	 -0.129530
O	 -0.774054	 0.001095	 -0.743181
H	 -2.752932	 -0.160639	 -0.912984
H	 -2.076115	 -1.178578	 0.348530
C	 0.214446	 -1.012086	 -0.689675
C	 1.282918	 -0.526050	 -1.666480
C	 0.808362	 -1.130857	 0.717573
C	 -0.347754	 -2.358240	 -1.157561
H	 1.664075	 0.439221	 -1.352789
H	 0.859101	 -0.414427	 -2.658092
H	 2.111011	 -1.225389	 -1.719847
H	 1.138603	 -0.158995	 1.068934
H	 1.663068	 -1.799451	 0.709761
H	 0.093916	 -1.526925	 1.431191
H	 -0.829281	 -2.248753	 -2.123581
H	 0.451374	 -3.085837	 -1.255183
H	 -1.071889	 -2.764218	 -0.459391

2 3 6 7 F

