%nprocshared=1
%mem=2GB
#HF/6-31G* nosymm scf=tight 

Mol

0 1
H	 3.116669	 -2.195833	 -2.187552
C	 2.282953	 -2.656483	 -1.667485
C	 1.068014	 -1.729960	 -1.646466
H	 2.055263	 -3.590915	 -2.172678
H	 2.614322	 -2.897292	 -0.661278
C	 -0.127859	 -2.340084	 -0.922563
H	 0.768649	 -1.481305	 -2.659847
H	 1.338918	 -0.792098	 -1.164369
N	 -1.268658	 -1.446027	 -0.948991
H	 -0.414899	 -3.262986	 -1.419375
H	 0.162478	 -2.615159	 0.096955
C	 -1.217365	 -0.386708	 0.039277
H	 -1.355622	 -1.044301	 -1.863373
C	 -2.452633	 0.504241	 -0.042481
H	 -1.172857	 -0.848333	 1.022069
H	 -0.315698	 0.227728	 -0.054795
C	 -3.758029	 -0.289423	 -0.010781
H	 -2.394220	 1.093569	 -0.952170
H	 -2.440793	 1.210787	 0.785871
H	 -3.816659	 -0.981993	 -0.845726
H	 -4.617837	 0.370165	 -0.069296
H	 -3.847478	 -0.867502	 0.904682

15 12 14 18 F

