%nprocshared=1
%mem=2GB
#HF/6-31G* nosymm scf=tight 

Mol

0 1
H	 -2.095764	 0.435638	 -2.350391
C	 -2.795213	 1.048318	 -1.768139
C	 -2.660244	 0.921717	 -0.272021
O	 -3.583432	 1.744001	 -2.321751
C	 -3.974021	 0.506172	 0.404417
H	 -1.862619	 0.219583	 -0.058690
H	 -2.356107	 1.897285	 0.105367
C	 -5.061707	 1.581230	 0.337407
H	 -4.333845	 -0.401204	 -0.071480
H	 -3.778718	 0.245775	 1.443555
C	 -6.368678	 1.149136	 1.005192
H	 -5.251432	 1.831086	 -0.704430
H	 -4.705268	 2.496585	 0.806037
C	 -7.459338	 2.220364	 0.922241
H	 -6.714262	 0.229283	 0.540247
H	 -6.177789	 0.911200	 2.050817
C	 -8.761152	 1.865272	 1.649744
H	 -7.678614	 2.430877	 -0.123367
H	 -7.070769	 3.145683	 1.342375
C	 -9.525371	 0.685833	 1.045995
H	 -9.407704	 2.739262	 1.642041
H	 -8.544338	 1.658314	 2.695728
H	 -9.741857	 0.858120	 -0.005062
H	 -8.967321	 -0.241472	 1.121224
H	 -10.471629	 0.537870	 1.557559

6 3 5 8 F

3 5 8 12 F

12 8 11 14 F

8 11 14 18 F

20 17 14 18 F

