%nprocshared=1
%mem=2GB
#HF/6-31G* nosymm scf=tight 
prop=(read,field)

Mol

0 1
H	 0.010595	 -1.570455	 -1.156395
C	 -0.039645	 -1.232796	 -0.123398
H	 0.331028	 -2.038138	 0.498592
C	 0.847175	 0.000015	 0.000165
C	 -1.446861	 -0.735640	 0.227784
O	 2.035898	 0.000072	 0.000095
C	 -0.039744	 1.232779	 0.123549
H	 -2.231713	 -1.318415	 -0.239160
H	 -1.601040	 -0.786198	 1.302436
C	 -1.446819	 0.735567	 -0.228178
H	 0.010171	 1.570356	 1.156599
H	 0.331070	 2.038185	 -0.498262
H	 -2.231864	 1.318320	 0.238468
H	 -1.600603	 0.786099	 -1.302846

@grid.dat /N
