%nprocshared=1
%mem=2GB
#HF/6-31G* nosymm scf=tight 

Mol

0 1
H	 1.467401	 -2.901029	 -0.993363
C	 1.326769	 -1.823802	 -0.986828
C	 0.256217	 -1.433990	 0.027611
H	 1.030447	 -1.508375	 -1.981042
H	 2.286996	 -1.370210	 -0.766029
N	 -0.000257	 -0.000071	 0.054619
H	 -0.662030	 -1.940143	 -0.242589
H	 0.526583	 -1.805245	 1.020464
C	 -1.363055	 0.315058	 0.462241
C	 0.995983	 0.730029	 0.827352
C	 -2.412078	 -0.285320	 -0.468531
H	 -1.482241	 1.391144	 0.451970
H	 -1.549931	 -0.001174	 1.492681
C	 1.186058	 2.163791	 0.342132
H	 1.944276	 0.216074	 0.733840
H	 0.751055	 0.723525	 1.893540
H	 -2.262839	 0.075384	 -1.480151
H	 -2.369300	 -1.368867	 -0.491760
H	 -3.410332	 -0.003975	 -0.144961
H	 1.487013	 2.167880	 -0.699522
H	 0.278147	 2.750968	 0.428578
H	 1.954896	 2.662038	 0.926055
