%nprocshared=1
%mem=2GB
#HF/6-31G* nosymm scf=tight 

Mol

0 1
O	 -2.042549	 -1.228399	 -0.269030
C	 -1.653912	 -0.146171	 0.050137
C	 -0.332303	 0.024011	 0.778412
C	 -2.438579	 1.106236	 -0.272369
C	 0.437602	 1.241104	 0.241938
H	 -0.497097	 0.132251	 1.846827
H	 0.251420	 -0.875180	 0.615179
C	 0.929722	 1.041202	 -1.192248
H	 1.288954	 1.451519	 0.886924
H	 -0.211642	 2.110177	 0.290266
C	 -0.158219	 0.503652	 -2.121026
H	 1.303604	 1.985828	 -1.581248
H	 1.773743	 0.355503	 -1.188497
H	 -1.002732	 1.184984	 -2.172390
H	 -0.528974	 -0.456727	 -1.775114
H	 0.219643	 0.369012	 -3.129550
H	 -3.277823	 0.863061	 -0.908988
H	 -1.806773	 1.843019	 -0.759671
H	 -2.802853	 1.554979	 0.648059

11 8 5 9 F

9 5 3 2 F

