%nprocshared=1
%mem=2GB
#HF/6-31G* nosymm scf=tight opt=ModRedundant

Mol

0 1
H	 2.301000	 1.100000	 0.000000
N	 1.452000	 0.584000	 -0.000000
C	 1.329000	 -0.756000	 0.000000
C	 0.176000	 1.096000	 -0.000000
H	 2.179000	 -1.409000	 0.000000
N	 0.096000	 -1.133000	 -0.000000
H	 -0.017000	 2.147000	 -0.000000
C	 -0.648000	 0.024000	 -0.000000
C	 -2.143000	 -0.015000	 0.000000
H	 -2.514000	 -0.539000	 -0.875000
H	 -2.559000	 0.987000	 -0.000000
H	 -2.514000	 -0.538000	 0.875000
