%nprocshared=1
%mem=2GB
#HF/6-31G* nosymm scf=tight 

Mol

0 1
H	 -1.843055	 0.069849	 -1.064088
C	 -1.049282	 -0.484033	 -0.605803
C	 -1.042359	 -1.867295	 -0.601806
C	 0.000000	 0.183220	 0.000000
H	 -1.848008	 -2.404452	 -1.066948
C	 0.000000	 -2.555744	 0.000000
N	 0.000000	 1.642018	 0.000000
C	 1.049282	 -0.484034	 0.605803
H	 0.000000	 -3.630640	 0.000000
C	 1.042359	 -1.867295	 0.601806
O	 1.057097	 2.196749	 0.000000
O	 -1.057097	 2.196749	 0.000000
H	 1.843055	 0.069849	 1.064088
H	 1.848008	 -2.404452	 1.066948
