%nprocshared=1
%mem=2GB
#HF/6-31G* nosymm scf=tight 

Mol

0 1
H	 2.591676	 2.013956	 0.335017
O	 3.341076	 1.666752	 -0.126416
C	 3.569581	 0.339145	 0.272707
C	 2.539767	 -0.640285	 -0.279495
H	 4.553106	 0.084646	 -0.100901
H	 3.608576	 0.269204	 1.359154
C	 1.115811	 -0.397273	 0.226630
H	 2.556196	 -0.582511	 -1.364741
H	 2.852081	 -1.648031	 -0.010655
C	 0.115918	 -1.429151	 -0.302766
H	 0.797950	 0.599468	 -0.066350
H	 1.109961	 -0.420744	 1.316472
C	 -1.022339	 -1.777407	 0.663375
H	 -0.304983	 -1.071352	 -1.240672
H	 0.655734	 -2.342879	 -0.542350
C	 -1.998073	 -0.632521	 0.949135
H	 -1.580840	 -2.612903	 0.246434
H	 -0.600679	 -2.134707	 1.601659
C	 -3.173039	 -1.057172	 1.832629
H	 -2.380810	 -0.243354	 0.006706
H	 -1.477212	 0.191894	 1.430120
C	 -4.145133	 0.085367	 2.124697
H	 -3.709009	 -1.872388	 1.351332
H	 -2.792200	 -1.455313	 2.770888
H	 -4.568695	 0.483966	 1.207125
H	 -4.967200	 -0.247435	 2.750862
H	 -3.647307	 0.902288	 2.639647

14 10 13 16 F

10 7 4 8 F

8 4 3 2 F

10 13 16 20 F

20 16 19 22 F

4 3 2 1 F

