%nprocshared=1
%mem=2GB
#HF/6-31G* nosymm scf=tight 

Mol

0 1
H	 2.048312	 -3.593092	 -3.339630
C	 1.649779	 -3.484166	 -2.336108
C	 0.462406	 -2.522528	 -2.317087
H	 1.360739	 -4.471640	 -1.987427
H	 2.455012	 -3.131212	 -1.697932
C	 -0.127859	 -2.340084	 -0.922563
H	 -0.319852	 -2.879665	 -2.979593
H	 0.777207	 -1.554310	 -2.702894
N	 -1.268658	 -1.446027	 -0.948991
H	 -0.466014	 -3.302442	 -0.547754
H	 0.653742	 -1.998154	 -0.235859
C	 -1.217365	 -0.386708	 0.039277
H	 -1.355622	 -1.044301	 -1.863373
C	 -2.452633	 0.504241	 -0.042481
H	 -1.172857	 -0.848333	 1.022069
H	 -0.315698	 0.227728	 -0.054795
C	 -3.758029	 -0.289423	 -0.010781
H	 -2.394220	 1.093569	 -0.952170
H	 -2.440793	 1.210787	 0.785871
H	 -3.816659	 -0.981993	 -0.845726
H	 -4.617837	 0.370165	 -0.069296
H	 -3.847478	 -0.867502	 0.904682

15 12 14 18 F

