%nprocshared=1
%mem=2GB
#HF/6-31G* nosymm scf=tight 

Mol

0 1
H	 -3.920501	 -1.407530	 0.970948
C	 -2.852701	 -1.282786	 1.002984
C	 -2.203347	 -1.195027	 2.225190
C	 -2.130352	 -1.210292	 -0.177647
H	 -2.764748	 -1.251395	 3.140076
C	 -0.830348	 -1.034636	 2.265576
H	 -2.635439	 -1.278510	 -1.124135
C	 -0.755886	 -1.049753	 -0.139649
H	 -0.311175	 -0.964875	 3.202200
C	 -0.102120	 -0.961470	 1.083691
H	 -0.192932	 -0.993166	 -1.050803
C	 1.374729	 -0.788410	 1.181792
O	 1.970282	 -0.730723	 0.000018
O	 1.968603	 -0.709014	 2.211292
C	 3.377318	 -0.566646	 -0.000065
H	 3.695437	 -0.028981	 -0.881264
H	 3.789299	 -1.563704	 0.000236
H	 3.695516	 -0.028316	 0.880770

10 12 13 15 F

13 12 10 6 F

