%nprocshared=1
%mem=2GB
#HF/6-31G* nosymm scf=tight 

Mol

0 1
H	 -0.932178	 -0.034832	 -0.703161
N	 -0.626943	 -0.667432	 -0.000092
C	 -1.222009	 -1.983869	 0.039991
C	 0.325755	 -0.252874	 0.869779
H	 -2.076211	 -2.044463	 -0.626096
H	 -1.550551	 -2.174529	 1.048672
H	 -0.503134	 -2.744477	 -0.245887
C	 1.674978	 -0.919497	 0.690344
O	 0.127974	 0.574320	 1.716447
H	 2.068026	 -0.726742	 -0.302990
H	 2.359261	 -0.526889	 1.427442
H	 1.590945	 -1.994555	 0.814939

4 2 3 5 F

