%nprocshared=1
%mem=2GB
#HF/6-31G* nosymm scf=tight 
prop=(read,field)

Mol

0 1
O	 1.214955	 1.306948	 -0.000018
C	 1.122303	 0.121850	 -0.000188
C	 -0.169906	 -0.657951	 -0.000612
O	 2.172868	 -0.688883	 0.000216
C	 -1.412288	 0.227390	 -0.000452
H	 -0.153458	 -1.313053	 -0.867402
H	 -0.153680	 -1.313765	 0.865644
C	 -2.706755	 -0.587301	 -0.000541
H	 -1.387756	 0.879512	 -0.868000
H	 -1.387728	 0.879184	 0.867341
C	 -3.956534	 0.291934	 0.000910
H	 -2.725870	 -1.239184	 -0.871609
H	 -2.724973	 -1.240798	 0.869333
H	 -3.984969	 0.933300	 -0.875158
H	 -4.859879	 -0.309933	 0.000519
H	 -3.984374	 0.931212	 0.878514
C	 3.452523	 -0.082563	 0.000533
H	 3.583313	 0.529367	 -0.880332
H	 4.163543	 -0.893981	 0.001117
H	 3.582579	 0.530001	 0.881077

@grid.dat /N
