%nprocshared=1
%mem=2GB
#HF/6-31G* nosymm scf=tight 

Mol

0 1
H	 -2.253271	 0.957188	 2.958752
C	 -2.040838	 0.048370	 2.399232
O	 -0.727036	 0.027434	 1.942260
H	 -2.172653	 -0.803456	 3.052042
H	 -2.752119	 -0.025111	 1.577582
C	 -0.407488	 1.070910	 1.077219
C	 1.063144	 1.005668	 0.737823
H	 -0.991062	 0.993029	 0.159030
H	 -0.627682	 2.033632	 1.534039
O	 1.392611	 -0.295398	 0.366430
H	 1.276314	 1.704201	 -0.068786
H	 1.645760	 1.309365	 1.608466
C	 2.706965	 -0.449871	 -0.062409
H	 2.756559	 -0.644779	 -1.131878
H	 3.305899	 0.433456	 0.155466
H	 3.125548	 -1.294566	 0.467107

3 6 7 11 F

2 3 6 7 F

