%nprocshared=8
%mem=2GB
#B3LYP/6-31G* nosymm scf=tight
# opt=ModRedundant  EmpiricalDispersion=GD3

Mol

1 1
C	 -0.601654	 1.291040	 -1.307891
C	 0.179918	 2.461202	 -1.338421
C	 -0.397528	 3.683491	 -1.009352
C	 -1.745173	 3.744828	 -0.641498
C	 -2.522970	 2.583372	 -0.605726
C	 -1.959117	 1.356639	 -0.941758
C	 -0.000000	 -0.000000	 -1.658508
H	 1.215487	 2.424541	 -1.664749
H	 0.199370	 4.588835	 -1.049333
H	 -2.190465	 4.700343	 -0.382001
H	 -3.564846	 2.632871	 -0.306431
H	 -2.555798	 0.451526	 -0.871193
N	 -0.712589	 -0.905950	 -2.322235
N	 1.257060	 -0.262387	 -1.312074
H	 1.746772	 -1.098175	 -1.609406
H	 1.742323	 0.352500	 -0.671982
H	 -1.377189	 -1.485970	 -1.827091
H	 -0.673431	 -1.006470	 -3.329771

1 7 13 17 F
