%nprocshared=1
%mem=2GB
#HF/6-31G* nosymm scf=tight 

Mol

0 1
H	 -2.646374	 -0.642757	 1.268656
C	 -2.083525	 -0.384536	 0.393091
O	 -0.807605	 -0.127164	 0.768327
F	 -2.118945	 -1.383102	 -0.486752
F	 -2.621877	 0.670592	 -0.209486
C	 0.084052	 0.273579	 -0.209957
C	 -0.447247	 1.578756	 -0.788226
Cl	 0.227384	 -0.956975	 -1.475819
H	 1.069357	 0.453957	 0.182997
F	 -1.553854	 1.363674	 -1.467418
F	 0.451504	 2.073020	 -1.616106
F	 -0.689231	 2.469812	 0.142063

10 7 6 9 F

6 3 2 4 F

