%nprocshared=1
%mem=2GB
#HF/6-31G* nosymm scf=tight 

Mol

0 1
H	 1.964176	 -4.965969	 2.873506
C	 1.942405	 -4.064785	 2.288301
C	 0.860601	 -3.787789	 1.459328
C	 2.986542	 -3.164937	 2.347486
H	 0.037699	 -4.477866	 1.400553
C	 0.829175	 -2.633264	 0.707476
H	 3.831549	 -3.362543	 2.983097
C	 2.970189	 -1.995264	 1.595119
H	 -0.000059	 -2.407068	 0.063240
C	 1.887146	 -1.728984	 0.772201
H	 3.797144	 -1.315390	 1.662818
O	 1.765256	 -0.628444	 0.000000
C	 2.778419	 0.335181	 0.000000
H	 2.731280	 0.961222	 -0.884976
H	 3.711703	 -0.207767	 0.000000
H	 2.731280	 0.961222	 0.884976

13 12 10 8 F

