%nprocshared=1
%mem=2GB
#HF/6-31G* nosymm scf=tight 

Mol

0 1
H	 7.066039	 -1.762481	 -3.084661
C	 6.705227	 -1.819403	 -2.062361
C	 7.509496	 -2.832164	 -1.248333
H	 6.778771	 -0.825981	 -1.629873
H	 5.653017	 -2.088528	 -2.097375
C	 7.021741	 -2.942415	 0.197956
H	 8.556662	 -2.547590	 -1.256253
H	 7.445033	 -3.808999	 -1.725124
C	 5.505383	 -3.088435	 0.326813
H	 7.499266	 -3.788524	 0.679322
H	 7.327115	 -2.053068	 0.744628
C	 4.964761	 -4.436609	 -0.126394
H	 5.212245	 -2.971536	 1.369011
H	 4.991362	 -2.296623	 -0.213549
C	 3.475324	 -4.538016	 -0.405696
O	 5.676052	 -5.388952	 -0.242636
C	 3.142513	 -5.197708	 -1.752249
H	 3.077758	 -3.530724	 -0.373804
H	 3.010537	 -5.105855	 0.398180
C	 3.906992	 -6.506058	 -1.962969
H	 2.073565	 -5.394231	 -1.800676
H	 3.371148	 -4.517137	 -2.568350
C	 3.584233	 -7.172245	 -3.299729
H	 3.675183	 -7.191428	 -1.151430
H	 4.975620	 -6.311267	 -1.903941
H	 2.526789	 -7.408725	 -3.374670
H	 3.837980	 -6.523738	 -4.133494
H	 4.139105	 -8.097216	 -3.419829

10 6 3 2 F

12 15 17 21 F

