%nprocshared=1
%mem=2GB
#HF/6-31G* nosymm scf=tight 

Mol

0 1
H	 3.449859	 -0.025435	 -0.821321
C	 2.738537	 -0.241289	 -0.032426
C	 1.322923	 0.120767	 -0.479465
H	 2.820262	 -1.296730	 0.207865
H	 3.033508	 0.327130	 0.844207
C	 0.306652	 -0.176050	 0.621399
H	 1.055465	 -0.445190	 -1.365798
H	 1.265943	 1.172573	 -0.733864
N	 -1.068537	 -0.011044	 0.085269
H	 0.372515	 -1.192590	 0.973735
H	 0.391664	 0.520566	 1.441230
O	 -1.656956	 -0.997225	 -0.235017
O	 -1.478635	 1.104830	 -0.018026

12 9 6 3 F

