%nprocshared=1
%mem=2GB
#HF/6-31G* nosymm scf=tight 

Mol

0 1
H	 -3.448398	 -0.644163	 0.694648
O	 -3.116345	 -0.173231	 -0.057402
C	 -1.777121	 -0.063496	 -0.007364
C	 -1.028346	 -0.593430	 1.039300
C	 -1.152057	 0.607161	 -1.051194
H	 -1.520645	 -1.111786	 1.844446
C	 0.343287	 -0.450462	 1.037870
H	 -1.751293	 1.006989	 -1.847011
C	 0.220566	 0.741993	 -1.038431
H	 0.933405	 -0.854306	 1.838976
C	 0.984182	 0.218375	 0.000000
H	 0.705445	 1.261623	 -1.847096
C	 2.452467	 0.370529	 0.000000
O	 3.228994	 -0.533774	 0.000000
H	 2.809473	 1.405765	 0.000000

5 3 2 1 F

