%nprocshared=1
%mem=2GB
#HF/6-31G* nosymm scf=tight 

Mol

0 1
H	 2.866480	 -0.465706	 0.876907
C	 2.405773	 -0.024801	 0.000000
N	 0.988830	 -0.304158	 0.000000
H	 2.866480	 -0.465706	 -0.876907
H	 2.629928	 1.045948	 0.000000
C	 0.670685	 -1.551075	 0.670782
C	 0.420356	 -0.281368	 -1.335023
H	 1.139860	 -2.406526	 0.174217
H	 1.047393	 -1.512810	 1.688069
C	 -0.835698	 -1.751715	 0.694106
H	 0.613763	 0.686634	 -1.786477
H	 0.871290	 -1.044297	 -1.977750
C	 -1.079389	 -0.515680	 -1.258507
H	 -1.087029	 -2.718154	 1.111053
H	 -1.297306	 -0.978788	 1.306047
O	 -1.365292	 -1.718359	 -0.601413
H	 -1.506492	 -0.590575	 -2.249966
H	 -1.552462	 0.315402	 -0.738434
