%nprocshared=1
%mem=2GB
#HF/6-31G* nosymm scf=tight 

Mol

0 1
H	 -2.247711	 0.370490	 -2.284685
C	 -1.796047	 0.167655	 -1.331672
C	 -2.569587	 0.045559	 -0.189886
C	 -0.428653	 0.025012	 -1.232499
H	 -3.637817	 0.153356	 -0.246516
C	 -1.974708	 -0.215676	 1.030197
H	 0.197105	 0.113400	 -2.095859
C	 0.154804	 -0.237046	 -0.000077
H	 -2.592293	 -0.307034	 1.904462
C	 -0.596810	 -0.366334	 1.172693
N	 1.611208	 -0.370857	 -0.000034
C	 -0.053664	 -0.650576	 2.555852
O	 2.274126	 0.622059	 -0.008063
O	 2.068510	 -1.474748	 0.007823
H	 0.633853	 0.118946	 2.878784
H	 -0.877247	 -0.697122	 3.257222
H	 0.482166	 -1.589199	 2.587402
