%nprocshared=1
%mem=2GB
#HF/6-31G* nosymm scf=tight 

Mol

0 1
H	 -0.944757	 -0.000069	 1.678017
O	 -0.042387	 -0.000390	 1.388199
C	 -0.001487	 0.000018	 -0.026623
C	 -1.341092	 -0.492296	 -0.577737
C	 0.308732	 1.411217	 -0.529541
C	 1.121365	 -0.963911	 -0.393317
H	 -1.328557	 -0.543737	 -1.661755
H	 -2.147551	 0.177574	 -0.288249
H	 -1.567540	 -1.478547	 -0.187804
H	 0.386395	 1.437807	 -1.611831
H	 -0.475177	 2.106311	 -0.237542
H	 1.243673	 1.762874	 -0.107524
H	 1.235562	 -1.036340	 -1.470098
H	 0.909931	 -1.952070	 -0.000476
H	 2.059360	 -0.625507	 0.032172
