%nprocshared=1
%mem=2GB
#HF/6-31G* nosymm scf=tight 

Mol

0 1
H	 -3.122099	 -1.229338	 0.024407
O	 -2.296894	 -0.886512	 -0.287495
C	 -2.026376	 0.340750	 0.341611
C	 -0.673256	 0.843270	 -0.132153
H	 -2.795603	 1.070625	 0.095626
H	 -2.020638	 0.222057	 1.424446
C	 0.486613	 -0.083066	 0.235839
H	 -0.715586	 0.970948	 -1.210718
H	 -0.508072	 1.829858	 0.297090
C	 0.765248	 -0.120712	 1.739421
H	 1.378736	 0.236967	 -0.292564
H	 0.264762	 -1.091045	 -0.112873
C	 1.446297	 1.148314	 2.250711
H	 -0.170518	 -0.267562	 2.274673
H	 1.387866	 -0.982475	 1.972133
H	 0.831797	 2.024275	 2.063706
H	 1.629342	 1.094331	 3.319601
H	 2.402341	 1.305563	 1.759016

14 10 7 11 F

10 7 4 8 F

1 2 3 4 F

