%nprocshared=1
%mem=2GB
#HF/6-31G* nosymm scf=tight 

Mol

0 1
H	 0.179117	 0.811061	 5.524213
C	 0.441174	 0.345218	 4.590885
C	 0.238482	 -1.015546	 4.416565
C	 0.980381	 1.107180	 3.566384
H	 -0.179775	 -1.605327	 5.211918
C	 0.575684	 -1.613813	 3.216210
H	 1.136784	 2.161877	 3.703342
C	 1.318676	 0.510450	 2.363951
H	 0.425834	 -2.665440	 3.063576
C	 1.116764	 -0.853135	 2.186102
H	 1.736205	 1.096252	 1.568447
C	 1.463013	 -1.545621	 0.912827
O	 1.970282	 -0.730723	 0.000018
O	 1.304222	 -2.711036	 0.724537
C	 3.377318	 -0.566646	 -0.000065
H	 3.695437	 -0.028981	 -0.881264
H	 3.789299	 -1.563704	 0.000236
H	 3.695516	 -0.028316	 0.880770

12 13 15 16 F

13 12 10 6 F

