%nprocshared=1
%mem=2GB
#HF/6-31G* nosymm scf=tight 

Mol

0 1
H	 -2.128177	 0.069849	 0.000000
C	 -1.211606	 -0.484033	 0.000000
C	 -1.203612	 -1.867295	 0.000000
C	 0.000000	 0.183220	 0.000000
H	 -2.133896	 -2.404452	 0.000000
C	 0.000000	 -2.555744	 0.000000
N	 0.000000	 1.642018	 0.000000
C	 1.211606	 -0.484034	 0.000000
H	 0.000000	 -3.630640	 0.000000
C	 1.203612	 -1.867295	 0.000000
O	 1.057097	 2.196749	 0.000000
O	 -1.057097	 2.196749	 0.000000
H	 2.128177	 0.069849	 0.000000
H	 2.133896	 -2.404452	 0.000000
