%nprocshared=1
%mem=2GB
#HF/6-31G* nosymm scf=tight 

Mol

0 1
H	 -3.571158	 0.540474	 0.139285
O	 -3.106200	 -0.271124	 -0.011510
C	 -1.775819	 -0.076055	 -0.001477
C	 -1.135214	 0.613241	 1.023949
C	 -1.046743	 -0.592862	 -1.065161
H	 -1.707713	 1.010610	 1.844713
C	 0.232700	 0.783025	 0.981487
H	 -1.563650	 -1.120679	 -1.843934
C	 0.320720	 -0.414870	 -1.093443
H	 0.739978	 1.312721	 1.765829
C	 0.976959	 0.271582	 -0.076703
H	 0.886177	 -0.815166	 -1.917508
C	 2.441108	 0.454202	 -0.120624
O	 3.170586	 -0.089618	 -0.890611
H	 2.842584	 1.147767	 0.625668

7 11 13 14 F

