%nprocshared=1
%mem=2GB
#HF/6-31G* nosymm scf=tight 

Mol

0 1
H	 -2.147938	 1.456581	 -1.786027
C	 -1.737895	 0.800679	 -1.041022
C	 -2.561303	 0.135735	 -0.148388
C	 -0.374827	 0.610937	 -0.963600
H	 -3.627062	 0.270430	 -0.192631
C	 -2.019708	 -0.705530	 0.805381
H	 0.288641	 1.109823	 -1.638654
C	 0.154804	 -0.237046	 -0.000077
H	 -2.675475	 -1.212521	 1.488774
C	 -0.648032	 -0.923920	 0.916812
N	 1.611208	 -0.370857	 -0.000034
C	 -0.165290	 -1.865701	 1.997988
O	 2.274126	 0.622059	 -0.008063
O	 2.068510	 -1.474748	 0.007823
H	 0.497280	 -1.367584	 2.692255
H	 -1.019463	 -2.245237	 2.544537
H	 0.379967	 -2.701867	 1.582482
