%nprocshared=1
%mem=2GB
#HF/6-31G* nosymm scf=tight 

Mol

0 1
H	 -3.135461	 -1.215070	 0.001379
O	 -2.310168	 -0.871793	 -0.309793
C	 -2.026376	 0.340750	 0.341611
C	 -0.673256	 0.843270	 -0.132153
H	 -2.792215	 1.080697	 0.115987
H	 -2.013526	 0.200402	 1.421792
C	 0.486613	 -0.083066	 0.235839
H	 -0.715586	 0.970948	 -1.210718
H	 -0.508072	 1.829858	 0.297090
C	 1.265848	 -0.576057	 -0.984640
H	 0.101145	 -0.932629	 0.790067
H	 1.165785	 0.442081	 0.906501
C	 0.507582	 -1.631691	 -1.788592
H	 1.497000	 0.269607	 -1.628952
H	 2.222033	 -0.985327	 -0.664247
H	 -0.438319	 -1.241007	 -2.152636
H	 1.082860	 -1.960834	 -2.648630
H	 0.290922	 -2.506224	 -1.181335

14 10 7 11 F

2 3 4 8 F

1 2 3 4 F

