%nprocshared=1
%mem=2GB
#HF/6-31G* nosymm scf=tight 

Mol

0 1
H	 2.421060	 -0.928070	 -2.014435
C	 1.699358	 -1.151640	 -1.237203
C	 1.322923	 0.120767	 -0.479465
H	 0.832263	 -1.602400	 -1.709786
H	 2.143063	 -1.888953	 -0.575319
C	 0.306652	 -0.176050	 0.621399
H	 0.898060	 0.849474	 -1.162037
H	 2.203291	 0.566739	 -0.031890
N	 -1.068537	 -0.011044	 0.085269
H	 0.372515	 -1.192590	 0.973735
H	 0.391664	 0.520566	 1.441230
O	 -1.656956	 -0.997225	 -0.235017
O	 -1.478635	 1.104830	 -0.018026

12 9 6 3 F

