%nprocshared=1
%mem=2GB
#HF/6-31G* nosymm scf=tight 

Mol

0 1
O	 0.515892	 1.553914	 -0.261350
C	 0.140502	 1.681556	 -1.381988
C	 -0.174811	 0.555456	 -2.336122
O	 -0.054281	 2.863688	 -1.952602
C	 -1.038013	 -0.539688	 -1.717346
H	 -0.657300	 0.992588	 -3.206107
H	 0.771353	 0.156983	 -2.692138
C	 -2.316906	 0.014379	 -1.087418
H	 -0.459526	 -1.071803	 -0.968540
H	 -1.289918	 -1.270815	 -2.479252
C	 -2.056357	 0.747749	 0.227605
H	 -2.803042	 0.691183	 -1.787192
H	 -3.018323	 -0.799137	 -0.913417
H	 -1.384800	 1.588597	 0.080498
H	 -2.978719	 1.130690	 0.652907
H	 -1.602201	 0.087480	 0.960699
C	 1.065166	 3.726192	 -2.042424
H	 1.444631	 3.960080	 -1.058153
H	 0.709774	 4.621320	 -2.528624
H	 1.850932	 3.269393	 -2.626729

9 5 8 12 F

1 2 3 6 F

9 5 3 6 F

