%nprocshared=1
%mem=2GB
#HF/6-31G* nosymm scf=tight 

Mol

0 1
H	 -3.161837	 0.500524	 -0.000234
C	 -2.367097	 -0.232926	 -0.000000
O	 -1.158440	 0.455814	 -0.000122
H	 -2.468853	 -0.861886	 -0.882833
H	 -2.468942	 -0.861421	 0.883154
C	 -1.058687	 1.440634	 0.983775
C	 0.300233	 2.109559	 0.871797
H	 -1.182068	 0.997128	 1.972703
H	 -1.854304	 2.176601	 0.860266
C	 1.452058	 1.140535	 1.134806
H	 0.391412	 2.539701	 -0.120839
H	 0.336526	 2.935378	 1.575646
H	 1.448303	 0.318214	 0.424737
H	 2.409046	 1.644152	 1.048836
H	 1.392659	 0.716077	 2.133160

6 3 2 4 F

8 6 3 2 F

