%nprocshared=1
%mem=2GB
#HF/6-31G* nosymm scf=tight 

Mol

0 1
H	 -0.216825	 0.021369	 -3.357402
C	 0.374198	 0.036393	 -2.447010
C	 -0.521757	 -0.028637	 -1.217342
H	 0.969602	 0.942322	 -2.434777
H	 1.053364	 -0.811668	 -2.481329
N	 0.263400	 0.031178	 0.000000
H	 -1.199035	 0.820290	 -1.219355
H	 -1.147901	 -0.924895	 -1.265384
C	 -0.521757	 -0.028637	 1.217342
H	 0.935769	 -0.712709	 0.000000
C	 -0.318489	 1.224355	 2.058615
H	 -1.567643	 -0.108315	 0.935984
H	 -0.293578	 -0.915281	 1.816875
H	 -0.582891	 2.109247	 1.490793
H	 -0.929478	 1.191514	 2.955253
H	 0.718346	 1.322320	 2.370106
