%nprocshared=1
%mem=2GB
#HF/6-31G* nosymm scf=tight 

Mol

0 1
H	 -1.022503	 1.675049	 0.793731
C	 -0.371505	 0.819188	 0.978102
N	 0.538815	 0.649616	 0.000000
O	 -0.487071	 0.134867	 1.951527
C	 1.521968	 -0.411503	 0.000000
H	 0.527984	 1.291898	 -0.758709
H	 2.150599	 -0.357004	 -0.881901
H	 0.999455	 -1.354525	 0.000000
H	 2.150599	 -0.357004	 0.881901

1 2 3 6 F

