%nprocshared=1
%mem=2GB
#HF/6-31G* nosymm scf=tight 

Mol

0 1
H	 -1.064089	 0.069849	 -1.843055
C	 -0.605803	 -0.484033	 -1.049282
C	 -0.601806	 -1.867295	 -1.042359
C	 0.000000	 0.183220	 0.000000
H	 -1.066948	 -2.404452	 -1.848008
C	 0.000000	 -2.555744	 0.000000
N	 0.000000	 1.642018	 0.000000
C	 0.605803	 -0.484034	 1.049282
H	 0.000000	 -3.630640	 0.000000
C	 0.601806	 -1.867295	 1.042359
O	 1.057097	 2.196749	 0.000000
O	 -1.057097	 2.196749	 0.000000
H	 1.064089	 0.069849	 1.843055
H	 1.066948	 -2.404452	 1.848008
