%nprocshared=1
%mem=2GB
#HF/6-31G* nosymm scf=tight 

Mol

0 1
H	 -0.367348	 2.047014	 -0.308205
C	 0.352277	 1.337084	 0.083769
N	 -0.000016	 0.000074	 -0.335546
H	 1.328359	 1.600444	 -0.307950
H	 0.381933	 1.450534	 1.172486
C	 -0.879138	 -0.648371	 0.610463
C	 -0.539315	 -0.021102	 -1.676018
H	 -1.063774	 -1.670537	 0.299918
H	 -0.411339	 -0.675917	 1.588148
H	 -1.846082	 -0.144641	 0.711254
H	 0.176473	 0.409041	 -2.367393
H	 -0.724891	 -1.044592	 -1.981745
H	 -1.477298	 0.536077	 -1.769106
