%nprocshared=1
%mem=2GB
#HF/6-31G* nosymm scf=tight 

Mol

0 1
H	 6.024589	 -0.641145	 2.061959
C	 5.901990	 -1.713047	 2.182451
C	 6.984276	 -2.481377	 1.425152
H	 5.939938	 -1.932881	 3.245266
H	 4.909719	 -1.974804	 1.825127
C	 6.836587	 -3.997771	 1.568503
H	 7.960479	 -2.177038	 1.788479
H	 6.943500	 -2.214129	 0.370350
C	 5.414412	 -4.503471	 1.325703
H	 7.509849	 -4.495501	 0.879570
H	 7.136774	 -4.290650	 2.572072
C	 4.964761	 -4.436609	 -0.126394
H	 5.339545	 -5.547646	 1.625478
H	 4.700032	 -3.967576	 1.946712
C	 3.475324	 -4.538016	 -0.405696
O	 5.749531	 -4.327101	 -1.020010
C	 3.142513	 -5.197708	 -1.752249
H	 3.077758	 -3.530724	 -0.373804
H	 3.010537	 -5.105855	 0.398180
C	 3.906992	 -6.506058	 -1.962969
H	 2.073565	 -5.394231	 -1.800676
H	 3.371148	 -4.517137	 -2.568350
C	 3.584233	 -7.172245	 -3.299729
H	 3.675183	 -7.191428	 -1.151430
H	 4.975620	 -6.311267	 -1.903941
H	 2.526789	 -7.408725	 -3.374670
H	 3.837980	 -6.523738	 -4.133494
H	 4.139105	 -8.097216	 -3.419829

10 6 3 2 F

12 15 17 21 F

