%nprocshared=1
%mem=2GB
#HF/6-31G* nosymm scf=tight 

Mol

0 1
H	 3.078537	 1.337006	 -0.796766
C	 2.364254	 1.134346	 -0.007047
C	 1.322923	 0.120767	 -0.479465
H	 2.915717	 0.764628	 0.851773
H	 1.901233	 2.076234	 0.270535
C	 0.306652	 -0.176050	 0.621399
H	 1.808372	 -0.805801	 -0.767975
H	 0.797101	 0.498503	 -1.348423
N	 -1.068537	 -0.011044	 0.085269
H	 0.372515	 -1.192590	 0.973735
H	 0.391664	 0.520566	 1.441230
O	 -1.656956	 -0.997225	 -0.235017
O	 -1.478635	 1.104830	 -0.018026

12 9 6 3 F

