%nprocshared=1
%mem=2GB
#HF/6-31G* nosymm scf=tight 

Mol

0 1
H	 2.550599	 -2.944195	 -3.069392
C	 1.946535	 -3.100942	 -2.181537
C	 0.748285	 -2.153020	 -2.156976
H	 1.625943	 -4.138943	 -2.180209
H	 2.586685	 -2.951925	 -1.316524
C	 -0.127859	 -2.340084	 -0.922563
H	 0.135841	 -2.300027	 -3.041110
H	 1.102528	 -1.124131	 -2.192905
N	 -1.268658	 -1.446027	 -0.948991
H	 -0.502818	 -3.359827	 -0.900342
H	 0.479399	 -2.214229	 -0.019913
C	 -1.217365	 -0.386708	 0.039277
H	 -1.355622	 -1.044301	 -1.863373
C	 -2.452633	 0.504241	 -0.042481
H	 -1.172857	 -0.848333	 1.022069
H	 -0.315698	 0.227728	 -0.054795
C	 -3.758029	 -0.289423	 -0.010781
H	 -2.394220	 1.093569	 -0.952170
H	 -2.440793	 1.210787	 0.785871
H	 -3.816659	 -0.981993	 -0.845726
H	 -4.617837	 0.370165	 -0.069296
H	 -3.847478	 -0.867502	 0.904682

15 12 14 18 F

