%nprocshared=1
%mem=2GB
#HF/6-31G* nosymm scf=tight 

Mol

0 1
H	 -3.571158	 0.540474	 0.139285
O	 -3.106200	 -0.271124	 -0.011510
C	 -1.775819	 -0.076055	 -0.001477
C	 -1.120107	 0.615130	 -1.016024
C	 -1.062570	 -0.594841	 1.071930
H	 -1.680392	 1.014027	 -1.844439
C	 0.247026	 0.784817	 -0.952992
H	 -1.590947	 -1.124093	 1.841983
C	 0.304322	 -0.416921	 1.120792
H	 0.765858	 1.315958	 -1.728752
C	 0.975538	 0.271404	 0.115156
H	 0.857517	 -0.818751	 1.952399
C	 2.438874	 0.453923	 0.181096
O	 3.112875	 0.200002	 1.130835
H	 2.895951	 0.853543	 -0.730250

7 11 13 14 F

