%nprocshared=1
%mem=2GB
#HF/6-31G* nosymm scf=tight 

Mol

0 1
H	 -1.452220	 -1.082921	 0.365890
N	 -0.626943	 -0.667432	 -0.000092
C	 -0.506345	 -0.535209	 -1.434209
C	 0.325755	 -0.252874	 0.869779
H	 -1.292510	 -1.083633	 -1.942326
H	 0.448711	 -0.937451	 -1.730514
H	 -0.558360	 0.506016	 -1.734502
C	 1.674978	 -0.919497	 0.690344
O	 0.127974	 0.574320	 1.716447
H	 2.068026	 -0.726742	 -0.302990
H	 2.359261	 -0.526889	 1.427442
H	 1.590945	 -1.994555	 0.814939

4 2 3 5 F

