%nprocshared=1
%mem=2GB
#HF/6-31G* nosymm scf=tight 

Mol

0 1
O	 -0.082556	 1.166045	 -0.786167
C	 0.788116	 1.716284	 -1.379704
C	 2.181204	 1.177096	 -1.595222
O	 0.640172	 2.906476	 -1.947763
C	 2.203964	 -0.278085	 -2.053017
H	 2.671919	 1.824601	 -2.316782
H	 2.726684	 1.305579	 -0.664275
C	 1.332327	 -0.511775	 -3.287804
H	 1.869487	 -0.914122	 -1.239525
H	 3.227867	 -0.570872	 -2.263272
C	 -0.164943	 -0.489289	 -2.975498
H	 1.553030	 0.246394	 -4.037781
H	 1.589594	 -1.468969	 -3.738885
C	 -0.605267	 0.785142	 -2.256337
H	 -0.417776	 -1.353955	 -2.365934
H	 -0.726507	 -0.594333	 -3.901106
H	 -0.085829	 0.900648	 -1.309206
H	 -1.670790	 0.771273	 -2.049170
H	 -0.396569	 1.666405	 -2.856446
C	 1.792514	 3.724689	 -2.034891
H	 2.180449	 3.940881	 -1.049855
H	 1.472688	 4.634305	 -2.518819
H	 2.560106	 3.239076	 -2.620117

15 11 8 12 F

9 5 8 12 F

1 2 3 6 F

9 5 3 6 F

