%nprocshared=1
%mem=2GB
#HF/6-31G* nosymm scf=tight 

Mol

0 1
H	 5.268524	 0.192471	 1.070992
C	 4.673736	 -0.214914	 0.259335
C	 3.185378	 -0.203514	 0.605509
H	 4.871837	 0.380453	 -0.627026
H	 5.025590	 -1.224632	 0.065769
C	 2.317601	 -0.778379	 -0.516234
H	 2.874655	 0.814325	 0.817774
H	 3.023650	 -0.778480	 1.515976
C	 2.983926	 -0.739145	 -1.891639
H	 2.052800	 -1.803446	 -0.282222
H	 1.388410	 -0.215613	 -0.570463
C	 4.132863	 -1.722465	 -2.059773
H	 2.252850	 -0.982324	 -2.661160
H	 3.334008	 0.263828	 -2.125441
C	 5.090504	 -1.492487	 -3.215951
O	 4.272201	 -2.653536	 -1.324860
C	 4.424581	 -1.581704	 -4.597164
H	 5.875043	 -2.234647	 -3.129865
H	 5.545453	 -0.510732	 -3.098210
C	 5.433609	 -1.442826	 -5.738735
H	 3.910293	 -2.536270	 -4.686196
H	 3.666467	 -0.809201	 -4.697031
C	 4.782950	 -1.529978	 -7.118572
H	 6.189742	 -2.218442	 -5.645215
H	 5.955312	 -0.493005	 -5.643539
H	 4.280343	 -2.483060	 -7.255493
H	 4.045263	 -0.744390	 -7.255619
H	 5.522373	 -1.430008	 -7.906696

12 15 17 21 F

16 12 15 17 F

