%nprocshared=1
%mem=2GB
#HF/6-31G* nosymm scf=tight 

Mol

0 1
H	 -1.836216	 1.387520	 -0.000064
C	 -1.301823	 0.443321	 -0.000031
O	 -0.003969	 0.658512	 0.000451
O	 -1.829879	 -0.616434	 -0.000857
C	 0.837918	 -0.409596	 0.433533
C	 0.608838	 -0.594925	 1.917950
H	 1.865574	 -0.154252	 0.214354
H	 0.587554	 -1.300299	 -0.126163
H	 0.857090	 0.309471	 2.461524
H	 1.233150	 -1.401096	 2.288834
H	 -0.427089	 -0.842130	 2.119528

7 5 3 2 F

