%nprocshared=1
%mem=2GB
#HF/6-31G* nosymm scf=tight 

Mol

0 1
H	 -2.095764	 0.435638	 -2.350391
C	 -2.795213	 1.048318	 -1.768139
C	 -2.660244	 0.921717	 -0.272021
O	 -3.583432	 1.744001	 -2.321751
C	 -3.425755	 -0.285194	 0.287992
H	 -1.605668	 0.873679	 -0.026521
H	 -3.063275	 1.835060	 0.163897
C	 -4.946484	 -0.146666	 0.180798
H	 -3.105839	 -1.174024	 -0.247657
H	 -3.143697	 -0.440918	 1.328160
C	 -5.695895	 -1.361286	 0.732067
H	 -5.217426	 0.004721	 -0.862044
H	 -5.273863	 0.746695	 0.709257
C	 -7.215930	 -1.226361	 0.608622
H	 -5.357426	 -2.251478	 0.207922
H	 -5.431812	 -1.503074	 1.779225
C	 -8.012620	 -2.383187	 1.222714
H	 -7.484272	 -1.123685	 -0.441685
H	 -7.523399	 -0.301174	 1.091536
C	 -7.824969	 -3.728290	 0.519075
H	 -9.067943	 -2.122952	 1.199951
H	 -7.748456	 -2.484729	 2.273346
H	 -8.066534	 -3.652765	 -0.537906
H	 -6.805745	 -4.090960	 0.600480
H	 -8.473950	 -4.483273	 0.952456

6 3 5 8 F

3 5 8 12 F

12 8 11 14 F

8 11 14 18 F

20 17 14 18 F

