%nprocshared=1
%mem=2GB
#HF/6-31G* nosymm scf=tight 

Mol

0 1
O	 2.134291	 1.807497	 -0.189915
C	 0.987211	 1.453279	 -0.248557
C	 -0.114609	 2.473840	 -0.464281
N	 0.623947	 0.147590	 -0.102813
H	 -0.825407	 2.470502	 0.354766
H	 0.352511	 3.445079	 -0.523783
H	 -0.659083	 2.284821	 -1.383194
C	 1.665360	 -0.855771	 0.000151
C	 -0.700322	 -0.361120	 -0.385249
H	 2.465253	 -0.618490	 -0.692587
H	 1.257730	 -1.821716	 -0.242189
H	 2.081488	 -0.891645	 1.004627
H	 -0.906830	 -1.196514	 0.273165
H	 -1.458147	 0.386143	 -0.211371
H	 -0.790166	 -0.712763	 -1.411450

8 4 2 3 F

