%nprocshared=1
%mem=2GB
#HF/6-31G* nosymm scf=tight 

Mol

0 1
H	 -2.577606	 0.247184	 1.509904
O	 -1.840915	 -0.185680	 1.103718
C	 -2.061112	 -1.573124	 1.079922
C	 -1.393332	 -2.267571	 -0.101831
H	 -1.649940	 -1.952304	 2.006656
H	 -3.128734	 -1.789699	 1.087586
C	 0.068297	 -1.866121	 -0.314778
H	 -1.458576	 -3.342142	 0.047857
H	 -1.966080	 -2.036788	 -0.998527
C	 0.221681	 -0.413136	 -0.773171
H	 0.516827	 -2.527933	 -1.050436
H	 0.621718	 -2.008038	 0.613622
C	 -0.600167	 0.604496	 0.026412
H	 1.273427	 -0.135128	 -0.735896
H	 -0.071895	 -0.347279	 -1.818722
C	 -2.117410	 0.477561	 -0.135878
H	 -0.353526	 0.490642	 1.079987
H	 -0.290955	 1.611761	 -0.248621
C	 -2.600494	 0.854011	 -1.538145
H	 -2.611335	 1.114812	 0.596284
H	 -2.433444	 -0.539553	 0.082991
C	 -1.790344	 0.186609	 -2.648954
H	 -3.648530	 0.581739	 -1.642913
H	 -2.553386	 1.934548	 -1.656905
H	 -1.844199	 -0.896057	 -2.577133
H	 -2.157989	 0.471419	 -3.629951
H	 -0.742551	 0.468550	 -2.594153

14 10 7 4 F

14 10 13 16 F

10 7 4 8 F

8 4 3 2 F

10 13 16 20 F

20 16 19 22 F

