%nprocshared=1
%mem=2GB
#HF/6-31G* nosymm scf=tight 

Mol

0 1
H	 1.804990	 -3.757314	 1.607955
C	 1.523426	 -3.559225	 0.578765
C	 0.302355	 -2.643210	 0.509020
H	 2.379761	 -3.110168	 0.083521
H	 1.328905	 -4.514950	 0.100228
C	 -0.127859	 -2.340084	 -0.922563
H	 0.508446	 -1.704715	 1.014137
H	 -0.526155	 -3.106673	 1.042091
N	 -1.268658	 -1.446027	 -0.948991
H	 0.690145	 -1.853795	 -1.447307
H	 -0.321316	 -3.278298	 -1.453322
C	 -1.217365	 -0.386708	 0.039277
H	 -1.355622	 -1.044301	 -1.863373
C	 -2.452633	 0.504241	 -0.042481
H	 -1.172857	 -0.848333	 1.022069
H	 -0.315698	 0.227728	 -0.054795
C	 -3.758029	 -0.289423	 -0.010781
H	 -2.394220	 1.093569	 -0.952170
H	 -2.440793	 1.210787	 0.785871
H	 -3.816659	 -0.981993	 -0.845726
H	 -4.617837	 0.370165	 -0.069296
H	 -3.847478	 -0.867502	 0.904682

15 12 14 18 F

