%nprocshared=1
%mem=2GB
#HF/6-31G* nosymm scf=tight 

Mol

0 1
H	 -2.401083	 0.524538	 2.247548
C	 -2.204371	 -0.356748	 1.640276
O	 -0.932236	 -0.314330	 1.078840
H	 -2.253669	 -1.234103	 2.270324
H	 -2.977370	 -0.428810	 0.876268
C	 -0.719715	 0.768384	 0.229244
C	 0.719720	 0.768376	 -0.229267
H	 -1.373225	 0.699819	 -0.641342
H	 -0.934351	 1.706646	 0.736788
O	 1.392611	 -0.295398	 0.366430
H	 0.750534	 0.687200	 -1.313918
H	 1.185043	 1.714359	 0.050526
C	 2.706965	 -0.449871	 -0.062409
H	 2.756559	 -0.644779	 -1.131878
H	 3.305899	 0.433456	 0.155466
H	 3.125548	 -1.294566	 0.467107

7 10 13 14 F

2 3 6 7 F

