%nprocshared=1
%mem=2GB
#HF/6-31G* nosymm scf=tight 

Mol

0 1
H	 2.355551	 -1.975126	 0.432265
N	 1.369087	 -1.807317	 0.441740
C	 0.876168	 -1.602306	 -0.907969
C	 1.054427	 -0.679016	 1.298850
H	 1.116557	 -2.474395	 -1.506670
H	 1.324326	 -0.729366	 -1.388354
C	 -0.632800	 -1.413828	 -0.864128
H	 1.423907	 -0.882478	 2.298278
H	 1.513381	 0.249845	 0.952124
C	 -0.454652	 -0.491109	 1.341324
H	 -1.098871	 -2.343712	 -0.524727
H	 -1.001742	 -1.204365	 -1.862904
N	 -0.975995	 -0.298722	 0.000000
H	 -0.694942	 0.384709	 1.935250
H	 -0.908787	 -1.359174	 1.828481
C	 -2.393863	 -0.024976	 0.000000
H	 -2.854032	 -0.467193	 -0.876721
H	 -2.854032	 -0.467193	 0.876721
H	 -2.623281	 1.044943	 0.000000
