%nprocshared=1
%mem=2GB
#HF/6-31G* nosymm scf=tight 

Mol

0 1
H	 -0.067412	 2.559964	 -0.319832
C	 0.805438	 1.909655	 -0.394124
N	 0.538815	 0.649616	 0.000000
O	 1.861189	 2.310587	 -0.786363
C	 1.521968	 -0.411503	 0.000000
H	 -0.384966	 0.446028	 0.305720
H	 2.150599	 -0.357004	 -0.881901
H	 0.999455	 -1.354525	 0.000000
H	 2.150599	 -0.357004	 0.881901

1 2 3 6 F

