%nprocshared=1
%mem=2GB
#HF/6-31G* nosymm scf=tight 

Mol

0 1
H	 3.083879	 -1.346558	 0.395444
O	 2.172668	 -1.603300	 0.415122
C	 1.365383	 -0.540424	 0.207814
C	 1.052533	 0.364006	 1.214509
C	 0.844069	 -0.369087	 -1.062739
H	 1.459290	 0.228839	 2.202595
C	 0.219404	 1.438145	 0.950328
H	 1.084920	 -1.066950	 -1.841233
C	 0.010790	 0.708930	 -1.318836
H	 -0.015535	 2.131437	 1.737430
C	 -0.306071	 1.617111	 -0.316550
C	 -0.552723	 0.898940	 -2.681634
H	 -0.953409	 2.450740	 -0.523965
O	 -0.214303	 0.285606	 -3.642800
H	 -1.329042	 1.666390	 -2.756449

11 9 12 14 F

