%nprocshared=1
%mem=2GB
#HF/6-31G* nosymm scf=tight 

Mol

0 1
H	 -0.957671	 -3.313638	 -0.198759
C	 -1.346974	 -2.506484	 -0.831015
C	 -0.414791	 -1.338711	 -1.026665
O	 -2.432782	 -2.591649	 -1.306303
C	 -0.558097	 -0.297372	 0.091132
H	 -0.613686	 -0.904396	 -1.999440
H	 0.604049	 -1.724418	 -1.031735
C	 -1.850991	 0.512573	 -0.019058
H	 -0.527822	 -0.799848	 1.055173
H	 0.293577	 0.380148	 0.069309
C	 -3.096943	 -0.368295	 -0.099594
H	 -1.800724	 1.150330	 -0.898172
H	 -1.931651	 1.177355	 0.838044
H	 -3.060452	 -1.020287	 -0.967456
H	 -3.996858	 0.233488	 -0.175704
H	 -3.191959	 -0.995686	 0.782074

9 5 8 12 F

6 3 5 9 F

