%nprocshared=1
%mem=2GB
#HF/6-31G* nosymm scf=tight 

Mol

0 1
H	 -1.351036	 1.370655	 0.166736
C	 -0.776352	 0.444088	 0.205465
N	 0.538815	 0.649616	 0.000000
O	 -1.294828	 -0.613540	 0.409949
C	 1.521968	 -0.411503	 0.000000
H	 0.842021	 1.582862	 -0.159379
H	 2.150599	 -0.357004	 -0.881901
H	 0.999455	 -1.354525	 0.000000
H	 2.150599	 -0.357004	 0.881901

1 2 3 6 F

