%nprocshared=1
%mem=2GB
#HF/6-31G* nosymm scf=tight 

Mol

0 1
H	 -4.030297	 -0.466388	 0.158999
C	 -2.966138	 -0.310429	 0.164288
C	 -2.455118	 0.963083	 0.364717
C	 -2.110182	 -1.383185	 -0.029277
H	 -3.120054	 1.794183	 0.514713
C	 -1.086710	 1.162827	 0.371386
H	 -2.508142	 -2.369665	 -0.184492
C	 -0.740037	 -1.185610	 -0.023000
H	 -0.673547	 2.141283	 0.524985
C	 -0.224732	 0.089529	 0.177616
H	 -0.073971	 -2.012871	 -0.172385
C	 1.240992	 0.357948	 0.193756
O	 1.970282	 -0.730723	 0.000018
O	 1.718343	 1.436138	 0.362575
C	 3.377318	 -0.566646	 -0.000065
H	 3.695437	 -0.028981	 -0.881264
H	 3.789299	 -1.563704	 0.000236
H	 3.695516	 -0.028316	 0.880770

10 12 13 15 F

13 12 10 6 F

