%nprocshared=1
%mem=2GB
#HF/6-31G* nosymm scf=tight 

Mol

0 1
H	 2.591676	 2.013956	 0.335017
O	 3.341076	 1.666752	 -0.126416
C	 3.569581	 0.339145	 0.272707
C	 2.539767	 -0.640285	 -0.279495
H	 4.553106	 0.084646	 -0.100901
H	 3.608576	 0.269204	 1.359154
C	 1.115811	 -0.397273	 0.226630
H	 2.556196	 -0.582511	 -1.364741
H	 2.852081	 -1.648031	 -0.010655
C	 0.115918	 -1.429151	 -0.302766
H	 0.797950	 0.599468	 -0.066350
H	 1.109961	 -0.420744	 1.316472
C	 -1.311898	 -1.276689	 0.234297
H	 0.097951	 -1.385067	 -1.390231
H	 0.475914	 -2.423241	 -0.046077
C	 -2.034887	 -0.002175	 -0.209979
H	 -1.893284	 -2.136601	 -0.091828
H	 -1.293230	 -1.320262	 1.322226
C	 -3.488953	 0.054098	 0.263265
H	 -2.008965	 0.065018	 -1.296682
H	 -1.510458	 0.874663	 0.162086
C	 -4.211061	 1.328278	 -0.173416
H	 -4.025103	 -0.812604	 -0.117339
H	 -3.517429	 -0.022688	 1.348244
H	 -4.228263	 1.417755	 -1.255970
H	 -5.239137	 1.337437	 0.175309
H	 -3.720050	 2.212943	 0.222362

14 10 13 16 F

10 7 4 8 F

8 4 3 2 F

10 13 16 20 F

20 16 19 22 F

4 3 2 1 F

