%nprocshared=1
%mem=2GB
#HF/6-31G* nosymm scf=tight 

Mol

0 1
H	 -1.962479	 1.418256	 -2.342114
O	 -1.614462	 2.109543	 -1.795432
C	 -0.489627	 1.631556	 -1.117024
C	 -0.795902	 0.595680	 -0.067389
H	 -0.027117	 2.494973	 -0.652482
H	 0.240831	 1.226172	 -1.816396
C	 -1.522220	 -0.487727	 -0.255690
H	 -0.371594	 0.793660	 0.904850
H	 -1.071454	 -1.449856	 -0.418625
H	 -2.596511	 -0.445958	 -0.267127

5 3 2 1 F

5 3 4 7 F

