%nprocshared=1
%mem=2GB
#HF/6-31G* nosymm scf=tight 

Mol

0 1
H	 -2.390318	 -1.181557	 -1.997792
C	 -1.879165	 -0.736957	 -1.164467
C	 -2.581434	 -0.083377	 -0.166169
C	 -0.505578	 -0.812199	 -1.077599
H	 -3.653198	 -0.014047	 -0.215735
C	 -1.910395	 0.484267	 0.900703
H	 0.066292	 -1.310296	 -1.832344
C	 0.154804	 -0.237046	 -0.000077
H	 -2.473403	 0.986888	 1.665222
C	 -0.523606	 0.430375	 1.025271
N	 1.611208	 -0.370857	 -0.000034
C	 0.105883	 1.085837	 2.234835
O	 2.274126	 0.622059	 -0.008063
O	 2.068510	 -1.474748	 0.007823
H	 0.794660	 1.868870	 1.949222
H	 -0.673844	 1.516600	 2.850339
H	 0.662509	 0.373735	 2.828300
