%nprocshared=1
%mem=2GB
#HF/6-31G* nosymm scf=tight 

Mol

0 1
H	 -2.577059	 0.204429	 0.730862
C	 -1.587496	 -0.236856	 0.756460
C	 -0.603454	 0.661669	 0.000000
H	 -1.639823	 -1.220558	 0.305866
H	 -1.290800	 -0.351684	 1.791944
C	 0.763625	 0.112519	 0.000000
H	 -0.912158	 0.785675	 -1.031452
H	 -0.565347	 1.649043	 0.445209
N	 1.813038	 -0.320305	 0.000000
