%nprocshared=1
%mem=2GB
#HF/6-31G* nosymm scf=tight 

Mol

0 1
H	 -3.894059	 -0.050073	 0.337046
O	 -4.055081	 -0.601832	 1.088515
C	 -3.611581	 -1.907854	 0.820810
C	 -2.092415	 -2.037608	 0.815688
H	 -4.028632	 -2.526790	 1.604813
H	 -4.021380	 -2.263308	 -0.123910
C	 -1.402985	 -1.235243	 -0.290551
H	 -1.716009	 -1.720951	 1.784922
H	 -1.842537	 -3.091728	 0.707243
C	 0.115918	 -1.429151	 -0.302766
H	 -1.633168	 -0.181091	 -0.163485
H	 -1.808512	 -1.530458	 -1.258402
C	 0.579824	 -2.886769	 -0.200376
H	 0.526435	 -0.983554	 -1.207070
H	 0.542514	 -0.872898	 0.529279
C	 0.727785	 -3.417141	 1.228361
H	 -0.136855	 -3.511425	 -0.729518
H	 1.526011	 -3.000648	 -0.727253
C	 1.089510	 -4.903113	 1.278129
H	 -0.203924	 -3.256926	 1.769064
H	 1.489685	 -2.852392	 1.760217
C	 1.244105	 -5.433542	 2.703053
H	 0.324002	 -5.477389	 0.760738
H	 2.015148	 -5.066637	 0.730097
H	 0.323796	 -5.314109	 3.267847
H	 1.498359	 -6.488998	 2.704892
H	 2.028698	 -4.903778	 3.236090

14 10 7 4 F

10 7 4 8 F

8 4 3 2 F

10 13 16 20 F

20 16 19 22 F

4 3 2 1 F

