%nprocshared=1
%mem=2GB
#HF/6-31G* nosymm scf=tight 

Mol

0 1
H	 -2.798360	 -0.862255	 -0.071053
N	 -1.863561	 -0.715187	 0.256814
C	 -1.344686	 0.554728	 -0.219830
H	 -1.300452	 -1.461917	 -0.101532
C	 -2.477791	 1.544568	 -0.391373
H	 -0.597195	 0.998618	 0.439123
H	 -0.874712	 0.396924	 -1.185751
O	 -3.318263	 1.077305	 -1.407424
H	 -3.035402	 1.643754	 0.539686
H	 -2.074572	 2.520091	 -0.654058
C	 -4.362798	 1.938864	 -1.730275
H	 -4.939151	 1.474595	 -2.518925
H	 -5.013763	 2.113034	 -0.875353
H	 -3.991713	 2.899016	 -2.082713

8 5 3 6 F

5 8 11 13 F

11 8 5 3 F

