%nprocshared=1
%mem=2GB
#HF/6-31G* nosymm scf=tight 

Mol

0 1
H	 -3.269016	 -0.876744	 0.468090
C	 -2.809304	 0.000122	 0.025886
N	 -1.391456	 0.000019	 0.300661
H	 -3.037557	 -0.000063	 -1.044252
H	 -3.269223	 0.876956	 0.468000
C	 -1.102565	 0.233174	 1.702078
C	 -0.668560	 0.937463	 -0.536255
H	 -1.455848	 1.216532	 2.027200
H	 -1.619847	 -0.514764	 2.294168
C	 0.392679	 0.132274	 1.960211
H	 -0.869345	 0.703172	 -1.576616
H	 -0.993112	 1.967445	 -0.359304
C	 0.826684	 0.836563	 -0.278122
H	 0.593464	 0.366564	 3.000571
H	 0.717231	 -0.897708	 1.783259
N	 1.115575	 1.069718	 1.123295
H	 1.343966	 1.584501	 -0.870212
H	 1.179967	 -0.146795	 -0.603244
C	 2.533423	 1.069616	 1.398070
H	 2.705163	 1.309153	 2.441574
H	 3.024333	 1.826669	 0.796651
H	 3.009742	 0.107218	 1.187818
