%nprocshared=1
%mem=2GB
#HF/6-31G* nosymm scf=tight 

Mol

0 1
H	 -3.457960	 0.166880	 1.449720
O	 -3.367910	 -0.300316	 2.267454
C	 -3.043259	 -1.643282	 2.012310
C	 -1.609705	 -1.833855	 1.529264
H	 -3.184960	 -2.163733	 2.950780
H	 -3.740919	 -2.074362	 1.295219
C	 -1.218652	 -3.296192	 1.302296
H	 -1.479284	 -1.273815	 0.606924
H	 -0.941871	 -1.391137	 2.266397
C	 -1.140465	 -4.096490	 2.605458
H	 -0.258760	 -3.334495	 0.794845
H	 -1.943844	 -3.765959	 0.637649
C	 -2.330692	 -3.903200	 3.552210
H	 -1.035774	 -5.154125	 2.370312
H	 -0.231938	 -3.812188	 3.132194
C	 -2.452070	 -2.501818	 4.157085
H	 -3.243592	 -4.123913	 3.002924
H	 -2.275597	 -4.638477	 4.353565
C	 -3.710958	 -2.327360	 5.009259
H	 -2.456748	 -1.764150	 3.355878
H	 -1.580661	 -2.281508	 4.768977
C	 -3.831290	 -0.931358	 5.619474
H	 -4.588968	 -2.531507	 4.400235
H	 -3.712827	 -3.069907	 5.804561
H	 -3.864887	 -0.167643	 4.847571
H	 -4.733901	 -0.838658	 6.215574
H	 -2.985306	 -0.710683	 6.264438

14 10 7 4 F

14 10 13 16 F

10 7 4 8 F

10 13 16 20 F

20 16 19 22 F

4 3 2 1 F

