%nprocshared=1
%mem=2GB
#HF/6-31G* nosymm scf=tight 
prop=(read,field)

Mol

0 1
H	 -1.790728	 0.234949	 0.875173
C	 -1.257771	 -0.126958	 0.000076
C	 0.146387	 0.412166	 -0.000488
H	 -1.791801	 0.235663	 -0.874013
H	 -1.244149	 -1.208430	 -0.000300
O	 1.124026	 -0.262403	 0.000251
H	 0.228995	 1.504242	 0.000067

@grid.dat /N
