%nprocshared=1
%mem=2GB
#HF/6-31G* nosymm scf=tight 

Mol

0 1
H	 -0.000158	 1.970498	 0.756846
O	 -0.000074	 1.880206	 -0.189275
C	 -0.000015	 0.544847	 -0.545111
C	 -1.372108	 -0.064079	 -0.275747
C	 1.146590	 -0.178385	 0.153625
H	 0.178627	 0.486759	 -1.608509
F	 -2.283636	 0.570116	 -0.981763
F	 -1.423404	 -1.339685	 -0.595995
F	 -1.696544	 0.054045	 1.001901
F	 2.292347	 0.362617	 -0.201472
F	 1.188554	 -1.458163	 -0.150985
F	 1.039241	 -0.070372	 1.468306

7 4 3 6 F

