%nprocshared=1
%mem=2GB
#HF/6-31G* nosymm scf=tight 

Mol

0 1
O	 1.113539	 -0.322081	 -0.279688
C	 0.028650	 0.075053	 -0.000277
C	 -1.233602	 -0.752807	 0.000328
O	 -0.217966	 1.329135	 0.355196
C	 -2.501530	 0.091881	 0.000126
H	 -1.193807	 -1.406641	 -0.865785
H	 -1.193516	 -1.405779	 0.867015
H	 -2.545121	 0.729328	 -0.874513
H	 -3.377167	 -0.548497	 0.000561
H	 -2.544818	 0.730135	 0.874258
C	 0.886261	 2.214997	 0.394200
H	 1.623926	 1.871260	 1.104909
H	 0.487941	 3.169612	 0.700654
H	 1.343356	 2.295543	 -0.581529

11 4 2 3 F

