%nprocshared=1
%mem=2GB
#HF/6-31G* nosymm scf=tight 

Mol

0 1
H	 1.148083	 -1.049780	 0.784252
O	 1.319262	 -0.618148	 -0.041729
C	 0.709265	 0.639550	 -0.033818
C	 -0.377392	 0.791961	 0.997942
H	 0.292744	 0.779853	 -1.024792
H	 1.448555	 1.427341	 0.107113
C	 -0.866638	 -0.182305	 1.738353
H	 -0.763039	 1.793766	 1.108148
H	 -0.519273	 -1.195006	 1.642414
H	 -1.644169	 -0.001207	 2.458509

5 3 4 7 F

3 4 7 9 F

