%nprocshared=1
%mem=2GB
#HF/6-31G* nosymm scf=tight 

Mol

0 1
H	 7.443560	 -5.890027	 -3.599261
C	 7.111794	 -4.998460	 -3.076229
C	 7.732554	 -4.912512	 -1.682513
H	 7.388657	 -4.138877	 -3.679392
H	 6.026917	 -5.030447	 -3.023138
C	 7.279751	 -3.668974	 -0.914140
H	 8.814061	 -4.908853	 -1.771569
H	 7.466349	 -5.802811	 -1.114891
C	 5.768546	 -3.440230	 -0.948830
H	 7.601255	 -3.742558	 0.118751
H	 7.767719	 -2.793315	 -1.336219
C	 4.964761	 -4.436609	 -0.126394
H	 5.537177	 -2.452906	 -0.552055
H	 5.398910	 -3.439766	 -1.971838
C	 3.475324	 -4.538016	 -0.405696
O	 5.475829	 -5.104333	 0.721756
C	 3.142513	 -5.197708	 -1.752249
H	 3.077758	 -3.530724	 -0.373804
H	 3.010537	 -5.105855	 0.398180
C	 3.906992	 -6.506058	 -1.962969
H	 2.073565	 -5.394231	 -1.800676
H	 3.371148	 -4.517137	 -2.568350
C	 3.584233	 -7.172245	 -3.299729
H	 3.675183	 -7.191428	 -1.151430
H	 4.975620	 -6.311267	 -1.903941
H	 2.526789	 -7.408725	 -3.374670
H	 3.837980	 -6.523738	 -4.133494
H	 4.139105	 -8.097216	 -3.419829

10 6 3 2 F

12 15 17 21 F

