%nprocshared=1
%mem=2GB
#HF/6-31G* nosymm scf=tight 

Mol

0 1
H	 -0.000158	 1.970498	 0.756846
O	 -0.000074	 1.880206	 -0.189275
C	 -0.000015	 0.544847	 -0.545111
C	 -1.432006	 0.063231	 -0.753520
C	 0.782827	 -0.265999	 0.482356
H	 0.514179	 0.455318	 -1.490463
F	 -1.999383	 0.764584	 -1.711504
F	 -1.486705	 -1.207557	 -1.091846
F	 -2.148722	 0.228608	 0.346738
F	 2.024484	 0.166613	 0.534037
F	 0.810229	 -1.548921	 0.189545
F	 0.256977	 -0.129256	 1.689153

7 4 3 6 F

