%nprocshared=1
%mem=2GB
#HF/6-31G* nosymm scf=tight 

Mol

0 1
H	 -3.457960	 0.166880	 1.449720
O	 -3.367910	 -0.300316	 2.267454
C	 -3.043259	 -1.643282	 2.012310
C	 -1.609705	 -1.833855	 1.529264
H	 -3.184960	 -2.163733	 2.950780
H	 -3.740919	 -2.074362	 1.295219
C	 -0.975188	 -3.155452	 1.969306
H	 -1.599675	 -1.767560	 0.444427
H	 -1.012698	 -1.003806	 1.903388
C	 -0.729409	 -3.219510	 3.479375
H	 -0.035005	 -3.293013	 1.442526
H	 -1.622314	 -3.982705	 1.677378
C	 -1.913416	 -2.771413	 4.344058
H	 -0.447468	 -4.234519	 3.753443
H	 0.127386	 -2.592673	 3.717446
C	 -2.263297	 -1.284598	 4.237092
H	 -2.786100	 -3.354392	 4.057048
H	 -1.713027	 -3.020886	 5.384945
C	 -3.513756	 -0.907608	 5.034380
H	 -2.414465	 -1.025787	 3.190060
H	 -1.429975	 -0.678124	 4.583599
C	 -3.861549	 0.577225	 4.934503
H	 -4.356325	 -1.499629	 4.683558
H	 -3.368316	 -1.174396	 6.079156
H	 -4.045061	 0.868453	 3.904099
H	 -4.752813	 0.812325	 5.508099
H	 -3.052574	 1.196111	 5.312530

14 10 7 4 F

14 10 13 16 F

10 7 4 8 F

10 13 16 20 F

20 16 19 22 F

4 3 2 1 F

