%nprocshared=1
%mem=2GB
#HF/6-31G* nosymm scf=tight 
prop=(read,field)

Mol

0 1
H	 3.276443	 0.174322	 -0.109466
N	 2.434518	 -0.367776	 -0.081100
C	 1.267695	 0.496439	 0.024471
H	 2.502218	 -0.965817	 0.720572
C	 -0.015819	 -0.325199	 -0.029490
H	 1.289085	 1.183480	 -0.816095
H	 1.267843	 1.109021	 0.929525
C	 -1.282010	 0.529031	 0.046732
H	 -0.012228	 -0.908680	 -0.945791
H	 -0.015636	 -1.041289	 0.791953
C	 -2.563653	 -0.301816	 -0.006063
H	 -1.283817	 1.244581	 -0.773007
H	 -1.271120	 1.115352	 0.963283
H	 -2.621581	 -0.873563	 -0.927730
H	 -3.444868	 0.329911	 0.047809
H	 -2.609275	 -1.004623	 0.821102

@grid.dat /N
