%nprocshared=24
%mem=2GB
#HF/6-31G* nosymm scf=tight 

Mol

0 1
H	 -2.463887	 -1.404751	 3.174456
C	 -2.393282	 -1.145213	 2.135980
C	 -1.224516	 -1.150904	 1.538115
H	 -3.292956	 -0.884230	 1.609638
O	 -1.070249	 -1.593416	 0.262597
H	 -0.328786	 -0.790358	 2.011299
C	 0.216702	 -1.731284	 -0.233570
C	 0.804753	 -0.398699	 -0.639711
H	 0.259522	 -2.393977	 -1.090875
H	 0.831722	 -2.138014	 0.554999
F	 0.391029	 0.539953	 0.199183
F	 2.126619	 -0.414251	 -0.603178
F	 0.439944	 -0.046535	 -1.854703

11 8 7 9 F

3 5 7 9 F

6 3 5 7 F

