%nprocshared=1
%mem=2GB
#HF/6-31G* nosymm scf=tight 

Mol

0 1
H	 -2.100215	 1.976197	 -1.173558
C	 -1.710080	 1.103532	 -0.684042
C	 -2.557343	 0.178851	 -0.097478
C	 -0.349079	 0.891292	 -0.633256
H	 -3.621921	 0.326404	 -0.126529
C	 -2.041235	 -0.939915	 0.529198
H	 0.332431	 1.586619	 -1.076924
C	 0.154804	 -0.237046	 -0.000077
H	 -2.715263	 -1.645744	 0.978182
C	 -0.672536	 -1.190720	 0.602454
N	 1.611208	 -0.370857	 -0.000034
C	 -0.218684	 -2.447060	 1.312776
O	 2.274126	 0.622059	 -0.008063
O	 2.068510	 -1.474748	 0.007823
H	 0.419086	 -2.218823	 2.155561
H	 -1.087438	 -2.985362	 1.670369
H	 0.343902	 -3.094696	 0.654606
