%nprocshared=1
%mem=2GB
#HF/6-31G* nosymm scf=tight 

Mol

0 1
O	 1.321406	 -2.666385	 -0.734972
C	 0.411460	 -1.983802	 -0.392258
C	 -1.027456	 -2.419047	 -0.340798
O	 0.550821	 -0.724572	 0.000672
H	 -1.405047	 -2.316280	 0.669919
H	 -1.106517	 -3.446535	 -0.663148
H	 -1.625584	 -1.781388	 -0.981278
C	 1.863949	 -0.193559	 -0.000319
H	 2.028859	 0.409284	 -0.881648
H	 2.526261	 -1.045082	 -0.000003
H	 2.029520	 0.410555	 0.880008

8 4 2 1 F

