%nprocshared=1
%mem=2GB
#HF/6-31G* nosymm scf=tight 

Mol

0 1
H	 -1.922066	 -5.196052	 -1.006241
C	 -1.238354	 -4.456415	 -0.629068
C	 -0.948820	 -4.410047	 0.726354
C	 -0.649632	 -3.552782	 -1.499577
H	 -1.406087	 -5.111439	 1.400388
C	 -0.069605	 -3.458735	 1.210576
H	 -0.875279	 -3.590250	 -2.549951
C	 0.230777	 -2.599639	 -1.017114
H	 0.166142	 -3.408060	 2.256294
C	 0.523032	 -2.550550	 0.340804
H	 0.688650	 -1.898407	 -1.687149
C	 1.463013	 -1.545621	 0.912827
O	 1.970282	 -0.730723	 0.000018
O	 1.737069	 -1.473596	 2.069790
C	 3.377318	 -0.566646	 -0.000065
H	 3.695437	 -0.028981	 -0.881264
H	 3.789299	 -1.563704	 0.000236
H	 3.695516	 -0.028316	 0.880770

12 13 15 16 F

13 12 10 6 F

