%nprocshared=1
%mem=2GB
#HF/6-31G* nosymm scf=tight 

Mol

0 1
O	 -0.488453	 0.057968	 1.132425
C	 -0.451170	 -1.129930	 1.097049
C	 0.801727	 -1.959116	 0.945507
O	 -1.528589	 -1.897310	 1.185968
C	 1.124911	 -2.785238	 2.184071
H	 1.613075	 -1.280220	 0.700432
H	 0.669725	 -2.590969	 0.072237
H	 1.272053	 -2.149836	 3.048928
H	 2.030738	 -3.360307	 2.024106
H	 0.320287	 -3.472711	 2.414906
C	 -2.754966	 -1.369268	 0.691426
C	 -3.168978	 -0.242720	 1.614353
H	 -3.494191	 -2.158282	 0.667185
H	 -2.606160	 -1.021826	 -0.321851
H	 -3.308664	 -0.605902	 2.626156
H	 -4.103601	 0.190185	 1.272707
H	 -2.415857	 0.536871	 1.631734

2 4 11 13 F

4 2 3 6 F

