%nprocshared=1
%mem=2GB
#HF/6-31G* nosymm scf=tight 

Mol

0 1
H	 -2.095764	 0.435638	 -2.350391
C	 -2.795213	 1.048318	 -1.768139
C	 -2.660244	 0.921717	 -0.272021
O	 -3.583432	 1.744001	 -2.321751
C	 -2.720454	 2.279536	 0.441391
H	 -3.431399	 0.249166	 0.085337
H	 -1.694757	 0.456811	 -0.076187
C	 -1.513110	 3.175058	 0.152148
H	 -3.629169	 2.789034	 0.134906
H	 -2.810430	 2.119969	 1.514797
C	 -1.592084	 4.528986	 0.860284
H	 -1.434764	 3.330894	 -0.921828
H	 -0.597470	 2.667650	 0.449937
C	 -0.390942	 5.428228	 0.556031
H	 -2.513174	 5.026398	 0.567186
H	 -1.658368	 4.369995	 1.935790
C	 -0.385017	 6.763760	 1.308619
H	 -0.346553	 5.619749	 -0.514970
H	 0.520003	 4.887954	 0.805021
C	 -1.514723	 7.718291	 0.918417
H	 0.566223	 7.256922	 1.124549
H	 -0.425489	 6.574077	 2.379275
H	 -1.508834	 7.913434	 -0.150766
H	 -2.490438	 7.320574	 1.176825
H	 -1.406961	 8.671009	 1.428035

6 3 5 8 F

3 5 8 12 F

12 8 11 14 F

8 11 14 18 F

20 17 14 18 F

