%nprocshared=1
%mem=2GB
#HF/6-31G* nosymm scf=tight 

Mol

0 1
O	 3.225979	 0.970355	 -0.599647
C	 2.701189	 0.057885	 -0.047330
C	 1.245376	 -0.013843	 0.345420
O	 3.347903	 -1.046386	 0.304773
C	 0.455112	 1.231400	 -0.050772
H	 0.838542	 -0.913825	 -0.103701
H	 1.208210	 -0.175333	 1.419774
C	 -0.998893	 1.219485	 0.433193
H	 0.482531	 1.345121	 -1.130325
H	 0.957290	 2.103070	 0.354729
C	 -1.883438	 0.145884	 -0.207175
H	 -1.431207	 2.195402	 0.224832
H	 -1.019646	 1.105716	 1.516076
C	 -1.091890	 -0.843009	 -1.065396
H	 -2.409091	 -0.398344	 0.575975
H	 -2.649795	 0.610460	 -0.823486
C	 -0.513760	 -0.215943	 -2.335312
H	 -1.735372	 -1.677591	 -1.338595
H	 -0.281496	 -1.265351	 -0.473291
C	 0.207232	 1.106019	 -2.073995
H	 0.175882	 -0.916854	 -2.800887
H	 -1.314586	 -0.053748	 -3.053748
H	 0.605646	 1.525545	 -2.992619
H	 1.036487	 0.970815	 -1.385336
H	 -0.465385	 1.840287	 -1.639585
C	 4.728119	 -1.109107	 -0.004993
H	 4.882018	 -1.033965	 -1.071845
H	 5.068212	 -2.067527	 0.355250
H	 5.265056	 -0.311663	 0.488280

21 17 14 11 F

17 14 11 15 F

6 3 5 9 F

11 8 5 9 F

2 4 26 27 F

1 2 4 26 F

6 3 2 1 F

