%nprocshared=1
%mem=2GB
#HF/6-31G* nosymm scf=tight 

Mol

0 1
H	 -3.757347	 -0.410000	 3.605988
C	 -4.234519	 0.288326	 2.907226
C	 -4.444622	 -0.248049	 1.514110
O	 -4.543991	 1.376989	 3.268874
C	 -4.015009	 0.748661	 0.428634
H	 -3.912171	 -1.187916	 1.425487
H	 -5.508722	 -0.455885	 1.408513
C	 -4.902224	 1.994114	 0.357958
H	 -2.989035	 1.047141	 0.622466
H	 -4.006928	 0.248291	 -0.538486
C	 -6.253274	 1.803461	 1.050150
H	 -5.062659	 2.258041	 -0.685331
H	 -4.386047	 2.840886	 0.806374
C	 -7.144331	 3.045428	 0.963640
H	 -6.759475	 0.950440	 0.605350
H	 -6.089580	 1.551128	 2.097010
C	 -8.476090	 2.930578	 1.714174
H	 -7.340708	 3.275648	 -0.082366
H	 -6.595566	 3.895780	 1.362978
C	 -9.441535	 1.892099	 1.140506
H	 -8.962502	 3.902772	 1.700334
H	 -8.281521	 2.704290	 2.760528
H	 -9.641833	 2.084110	 0.089658
H	 -9.050397	 0.883621	 1.223924
H	 -10.390864	 1.916855	 1.666962

6 3 5 8 F

6 3 2 4 F

12 8 11 14 F

8 11 14 18 F

20 17 14 18 F

