%nprocshared=1
%mem=2GB
#HF/6-31G* nosymm scf=tight 

Mol

0 1
H	 6.803824	 -0.792527	 -2.038510
C	 6.481664	 -1.212283	 -1.090596
C	 7.371220	 -2.382908	 -0.674060
H	 6.511058	 -0.418329	 -0.350248
H	 5.446567	 -1.523868	 -1.201452
C	 6.939848	 -3.003174	 0.656730
H	 8.398927	 -2.042771	 -0.598382
H	 7.348415	 -3.145838	 -1.450662
C	 5.439942	 -3.284914	 0.747130
H	 7.482375	 -3.927662	 0.819915
H	 7.210522	 -2.329764	 1.466851
C	 4.964761	 -4.436609	 -0.126394
H	 5.175725	 -3.543420	 1.771402
H	 4.862214	 -2.394158	 0.510570
C	 3.475324	 -4.538016	 -0.405696
O	 5.726630	 -5.245326	 -0.564501
C	 3.142513	 -5.197708	 -1.752249
H	 3.077758	 -3.530724	 -0.373804
H	 3.010537	 -5.105855	 0.398180
C	 3.906992	 -6.506058	 -1.962969
H	 2.073565	 -5.394231	 -1.800676
H	 3.371148	 -4.517137	 -2.568350
C	 3.584233	 -7.172245	 -3.299729
H	 3.675183	 -7.191428	 -1.151430
H	 4.975620	 -6.311267	 -1.903941
H	 2.526789	 -7.408725	 -3.374670
H	 3.837980	 -6.523738	 -4.133494
H	 4.139105	 -8.097216	 -3.419829

10 6 3 2 F

12 15 17 21 F

