%nprocshared=1
%mem=2GB
#HF/6-31G* nosymm scf=tight 

Mol

0 1
H	 1.257370	 -4.597834	 -3.187882
C	 1.184461	 -4.075053	 -2.239655
C	 0.009788	 -3.097757	 -2.239142
H	 1.073565	 -4.822449	 -1.459061
H	 2.126912	 -3.560953	 -2.073124
C	 -0.127859	 -2.340084	 -0.922563
H	 -0.918176	 -3.626932	 -2.432133
H	 0.134687	 -2.384479	 -3.052178
N	 -1.268658	 -1.446027	 -0.948991
H	 -0.278661	 -3.050568	 -0.114209
H	 0.807840	 -1.815319	 -0.702407
C	 -1.217365	 -0.386708	 0.039277
H	 -1.355622	 -1.044301	 -1.863373
C	 -2.452633	 0.504241	 -0.042481
H	 -1.172857	 -0.848333	 1.022069
H	 -0.315698	 0.227728	 -0.054795
C	 -3.758029	 -0.289423	 -0.010781
H	 -2.394220	 1.093569	 -0.952170
H	 -2.440793	 1.210787	 0.785871
H	 -3.816659	 -0.981993	 -0.845726
H	 -4.617837	 0.370165	 -0.069296
H	 -3.847478	 -0.867502	 0.904682

15 12 14 18 F

