%nprocshared=8
%mem=2GB
#B3LYP/cc-pVDZ nosymm scf=tight
#   EmpiricalDispersion=GD3
prop=(read,field)

Mol

0 1
O	 -0.724050	 0.052603	 0.031450
O	 0.724050	 -0.052597	 -0.031450
H	 -0.917150	 -0.768697	 -0.459650
H	 0.917150	 0.768603	 0.459650

@grid.dat /N
