%nprocshared=1
%mem=2GB
#HF/6-31G* nosymm scf=tight 

Mol

0 1
H	 -3.269016	 -0.876744	 0.468090
C	 -2.809304	 0.000122	 0.025886
N	 -1.391456	 0.000019	 0.300661
H	 -3.037557	 -0.000063	 -1.044252
H	 -3.269223	 0.876956	 0.468000
C	 -0.938419	 1.260471	 0.855464
C	 -0.605428	 -0.361940	 -0.862505
H	 -1.092934	 2.086791	 0.154873
H	 -1.514216	 1.475146	 1.749855
C	 0.537264	 1.183066	 1.214539
H	 -0.938399	 -1.330511	 -1.221056
H	 -0.737897	 0.356982	 -1.676821
C	 0.870256	 -0.439346	 -0.503429
H	 0.870236	 2.151635	 1.573091
H	 0.669734	 0.464143	 2.028855
N	 1.323292	 0.821106	 0.051374
H	 1.446053	 -0.654021	 -1.397820
H	 1.024770	 -1.265665	 0.197161
C	 2.741140	 0.821004	 0.326148
H	 3.046750	 1.799656	 0.679157
H	 3.291673	 0.607301	 -0.583287
H	 3.030652	 0.082550	 1.079915
