%nprocshared=1
%mem=2GB
#HF/6-31G* nosymm scf=tight 

Mol

0 1
H	 0.677328	 3.722718	 -0.543297
O	 1.432000	 3.165373	 -0.410870
C	 1.063835	 1.883758	 -0.213148
C	 2.076963	 0.953160	 -0.004572
C	 -0.257495	 1.480995	 -0.212221
H	 3.096099	 1.291083	 -0.009892
C	 1.763991	 -0.374149	 0.203668
H	 -1.058061	 2.176433	 -0.370297
C	 -0.536158	 0.140425	 0.000000
H	 2.552433	 -1.085871	 0.363878
C	 0.443700	 -0.803853	 0.209198
N	 -1.935604	 -0.280333	 0.000000
H	 0.185232	 -1.829987	 0.369348
O	 -2.161694	 -1.452901	 0.000000
O	 -2.770341	 0.571417	 0.000000

4 3 2 1 F

