%nprocshared=1
%mem=2GB
#HF/6-31G* nosymm scf=tight 

Mol

0 1
H	 -3.489899	 1.228218	 -1.029938
O	 -3.452007	 0.283848	 -0.965577
C	 -3.181085	 -0.079926	 0.364119
C	 -1.765924	 0.277073	 0.805136
H	 -3.327791	 -1.152017	 0.410903
H	 -3.905698	 0.375695	 1.036898
C	 -0.863838	 -0.941111	 1.007091
H	 -1.321892	 0.944675	 0.066147
H	 -1.829439	 0.848298	 1.729739
C	 -1.286824	 -1.811505	 2.192281
H	 0.160202	 -0.607599	 1.144279
H	 -0.870099	 -1.541064	 0.098570
C	 -2.786525	 -2.119670	 2.196633
H	 -0.717302	 -2.737599	 2.171942
H	 -1.021673	 -1.310417	 3.122447
C	 -3.690353	 -0.905283	 2.438533
H	 -2.995669	 -2.877737	 2.949819
H	 -3.053318	 -2.562813	 1.239418
C	 -5.175759	 -1.154705	 2.170649
H	 -3.353198	 -0.092602	 1.799653
H	 -3.561173	 -0.559073	 3.462083
H	 -5.334288	 -1.514194	 1.157350
H	 -5.747750	 -0.239426	 2.288664
H	 -5.593943	 -1.888811	 2.851365

20 16 13 17 F

17 13 10 7 F

13 10 7 11 F

11 7 4 3 F

1 2 3 5 F

