%nprocshared=1
%mem=2GB
#HF/6-31G* nosymm scf=tight 

Mol

0 1
H	 0.894298	 -0.509540	 1.372311
C	 -0.119668	 -0.752603	 1.072087
N	 -0.528168	 0.128977	 -0.000000
H	 -0.763104	 -0.603587	 1.931634
H	 -0.142525	 -1.812763	 0.805996
C	 0.248044	 -0.037491	 -1.209632
H	 -1.498927	 -0.008356	 -0.199485
H	 0.998722	 0.743888	 -1.266824
H	 -0.398417	 0.061950	 -2.074060
H	 0.763621	 -0.999315	 -1.275517
