%nprocshared=1
%mem=2GB
#HF/6-31G* nosymm scf=tight 

Mol

0 1
O	 2.504303	 1.912604	 -0.407426
C	 1.711064	 1.920975	 -1.298191
C	 0.445484	 1.083112	 -1.263145
C	 1.918642	 2.775902	 -2.531547
C	 0.291004	 0.242674	 0.000989
H	 -0.402740	 1.755571	 -1.384396
H	 0.440335	 0.449954	 -2.149423
C	 -0.994322	 -0.586602	 0.000262
H	 0.308054	 0.896558	 0.867173
H	 1.151928	 -0.410710	 0.101220
C	 -2.259874	 0.272531	 0.000494
H	 -1.004862	 -1.240012	 -0.870939
H	 -1.005220	 -1.241071	 0.870675
C	 -3.549786	 -0.549746	 -0.000374
H	 -2.250389	 0.926680	 -0.869574
H	 -2.250838	 0.925513	 0.871430
C	 -4.809590	 0.315458	 -0.000369
H	 -3.560515	 -1.202009	 -0.871156
H	 -3.561123	 -1.202955	 0.869711
H	 -4.844746	 0.956611	 -0.876632
H	 -5.706986	 -0.295590	 -0.001609
H	 -4.845960	 0.954827	 0.877144
H	 1.094415	 3.472729	 -2.652791
H	 2.845617	 3.325170	 -2.442913
H	 1.949073	 2.154841	 -3.422048

15 11 8 12 F

15 11 14 18 F

1 2 3 6 F

9 5 3 6 F

