%nprocshared=1
%mem=2GB
#HF/6-31G* nosymm scf=tight 
prop=(read,field)

Mol

0 1
O	 -0.988123	 -1.408721	 0.050697
C	 -0.676776	 -0.249338	 -0.009276
C	 -1.746112	 0.827048	 -0.009541
N	 0.623920	 0.147482	 -0.102815
H	 -1.701527	 1.431400	 -0.908904
H	 -2.703452	 0.330624	 0.036388
H	 -1.647350	 1.487661	 0.845104
C	 1.665333	 -0.855879	 0.000149
C	 1.065949	 1.516491	 0.047750
H	 2.465226	 -0.618598	 -0.692589
H	 1.257703	 -1.821824	 -0.242191
H	 2.081461	 -0.891753	 1.004625
H	 1.943276	 1.675284	 -0.567978
H	 0.310556	 2.215357	 -0.274588
H	 1.333007	 1.746280	 1.077648

@grid.dat /N
