%nprocshared=1
%mem=2GB
#HF/6-31G* nosymm scf=tight 

Mol

0 1
O	 -0.682937	 1.318834	 -0.186099
C	 -0.860635	 0.152188	 -0.042321
C	 -2.173363	 -0.477127	 0.338347
O	 0.083258	 -0.765189	 -0.202595
H	 -2.477673	 -1.180929	 -0.427595
H	 -2.923125	 0.290956	 0.455536
H	 -2.058825	 -1.029004	 1.264191
C	 1.391937	 -0.334737	 -0.569838
C	 1.348752	 0.670632	 -1.705627
H	 1.988606	 -1.195683	 -0.830413
H	 1.792033	 0.112842	 0.328547
H	 2.350353	 1.035765	 -1.911060
H	 0.960692	 0.216265	 -2.608582
H	 0.724778	 1.517654	 -1.441760

8 4 2 1 F

