%nprocshared=1
%mem=2GB
#HF/6-31G* nosymm scf=tight 

Mol

0 1
H	 1.114066	 2.270122	 -2.709555
O	 1.762284	 2.066844	 -2.049108
C	 1.235178	 1.313871	 -1.063021
C	 2.080637	 0.940938	 -0.022799
C	 -0.086898	 0.913588	 -1.058397
H	 3.104050	 1.264635	 -0.049334
C	 1.600269	 0.170392	 1.015743
H	 -0.760392	 1.186383	 -1.846759
C	 -0.536158	 0.140425	 0.000000
H	 2.259924	 -0.112981	 1.814750
C	 0.275533	 -0.244528	 1.043319
N	 -1.935604	 -0.280333	 0.000000
H	 -0.111675	 -0.842473	 1.842029
O	 -2.161694	 -1.452901	 0.000000
O	 -2.770341	 0.571417	 0.000000

4 3 2 1 F

