%nprocshared=1
%mem=2GB
#HF/6-31G* nosymm scf=tight 

Mol

0 1
H	 -1.267186	 -1.324766	 0.356909
O	 -1.422729	 -0.573567	 -0.196946
C	 -0.731407	 0.539437	 0.309156
C	 0.680193	 0.672443	 -0.251532
H	 -1.319765	 1.404033	 0.030086
H	 -0.700012	 0.506517	 1.397677
C	 0.752091	 0.528005	 -1.771951
H	 1.079875	 1.638374	 0.043217
H	 1.304879	 -0.086399	 0.214801
H	 0.196828	 1.315991	 -2.271908
H	 1.777501	 0.588093	 -2.121077
H	 0.349335	 -0.428032	 -2.097594

8 4 3 2 F

