%nprocshared=1
%mem=2GB
#HF/6-31G* nosymm scf=tight 

Mol

0 1
H	 -3.847936	 -2.029913	 0.750038
C	 -2.777749	 -1.925643	 0.774770
C	 -2.037099	 -2.620934	 1.718780
C	 -2.143600	 -1.096668	 -0.137145
H	 -2.530154	 -3.263509	 2.425435
C	 -0.661091	 -2.486351	 1.749958
H	 -2.719387	 -0.558485	 -0.868195
C	 -0.766303	 -0.960407	 -0.107811
H	 -0.071954	 -3.016670	 2.473388
C	 -0.021156	 -1.655900	 0.837074
H	 -0.271417	 -0.320005	 -0.811582
C	 1.463013	 -1.545621	 0.912827
O	 1.970282	 -0.730723	 0.000018
O	 2.133788	 -2.125811	 1.707999
C	 3.377318	 -0.566646	 -0.000065
H	 3.695437	 -0.028981	 -0.881264
H	 3.789299	 -1.563704	 0.000236
H	 3.695516	 -0.028316	 0.880770

12 13 15 16 F

13 12 10 6 F

