%nprocshared=1
%mem=2GB
#HF/6-31G* nosymm scf=tight opt=ModRedundant

Mol

0 1
H	 -3.188000	 -1.230000	 -0.010000
O	 -2.363000	 -0.886000	 -0.322000
C	 -2.080000	 0.327000	 0.329000
C	 -0.727000	 0.830000	 -0.145000
H	 -2.846000	 1.067000	 0.103000
H	 -2.067000	 0.187000	 1.409000
C	 0.433000	 -0.096000	 0.224000
H	 -0.768000	 0.957000	 -1.223000
H	 -0.562000	 1.816000	 0.284000
C	 1.787000	 0.420000	 -0.266000
H	 0.247000	 -1.082000	 -0.190000
H	 0.466000	 -0.216000	 1.307000
C	 2.947000	 -0.503000	 0.106000
H	 1.756000	 0.541000	 -1.346000
H	 1.969000	 1.411000	 0.147000
H	 2.810000	 -1.493000	 -0.321000
H	 3.893000	 -0.114000	 -0.257000
H	 3.028000	 -0.618000	 1.183000
