%nprocshared=1
%mem=2GB
#HF/6-31G* nosymm scf=tight 

Mol

0 1
H	 -1.836216	 1.387520	 -0.000064
C	 -1.301823	 0.443321	 -0.000031
O	 -0.003969	 0.658512	 0.000451
O	 -1.829879	 -0.616434	 -0.000857
C	 0.847445	 -0.465591	 -0.220172
C	 0.736690	 -1.363949	 0.992677
H	 1.858955	 -0.113024	 -0.368031
H	 0.533083	 -0.969540	 -1.123780
H	 1.047922	 -0.840187	 1.889249
H	 1.371834	 -2.234334	 0.865179
H	 -0.284326	 -1.700938	 1.129983

7 5 3 2 F

