%nprocshared=1
%mem=2GB
#HF/6-31G* nosymm scf=tight 

Mol

0 1
O	 -2.042549	 -1.228399	 -0.269030
C	 -1.653912	 -0.146171	 0.050137
C	 -0.332303	 0.024011	 0.778412
C	 -2.438579	 1.106236	 -0.272369
C	 -0.535221	 -0.016700	 2.301251
H	 0.370460	 -0.748250	 0.478215
H	 0.079153	 0.985841	 0.492914
C	 -1.304304	 1.196853	 2.825494
H	 0.430924	 -0.071488	 2.799895
H	 -1.068502	 -0.927900	 2.555153
C	 -2.563949	 1.494489	 2.013142
H	 -1.575215	 1.031413	 3.866004
H	 -0.651666	 2.066611	 2.813072
H	 -3.252713	 0.654729	 2.034585
H	 -2.321137	 1.696303	 0.974029
H	 -3.086870	 2.360952	 2.405344
H	 -3.277823	 0.863061	 -0.908988
H	 -1.806773	 1.843019	 -0.759671
H	 -2.802853	 1.554979	 0.648059

11 8 5 9 F

9 5 3 2 F

