%nprocshared=1
%mem=2GB
#HF/6-31G* nosymm scf=tight 

Mol

0 1
H	 -3.190644	 0.456453	 0.266156
C	 -2.422169	 0.761970	 0.973438
O	 -1.147002	 0.489316	 0.488726
H	 -2.491563	 1.830178	 1.125943
H	 -2.606447	 0.258843	 1.921770
C	 -0.904937	 -0.860834	 0.248418
C	 0.462231	 -1.019981	 -0.374261
H	 -0.941269	 -1.423507	 1.182107
H	 -1.654876	 -1.275148	 -0.422358
O	 1.392611	 -0.295398	 0.366430
H	 0.724460	 -2.075752	 -0.398583
H	 0.432264	 -0.657138	 -1.402434
C	 2.706965	 -0.449871	 -0.062409
H	 2.756559	 -0.644779	 -1.131878
H	 3.305899	 0.433456	 0.155466
H	 3.125548	 -1.294566	 0.467107

3 6 7 11 F

2 3 6 7 F

