%nprocshared=1
%mem=2GB
#HF/6-31G* nosymm scf=tight 

Mol

0 1
H	 2.990431	 0.212978	 1.691152
C	 2.286917	 -0.235550	 0.995359
C	 0.996243	 0.576241	 0.947639
H	 2.078076	 -1.248623	 1.320674
H	 2.774141	 -0.290359	 0.027814
N	 -0.000257	 -0.000071	 0.054619
H	 0.581949	 0.606573	 1.947547
H	 1.214745	 1.613674	 0.678051
C	 -1.363055	 0.315058	 0.462241
C	 0.252038	 0.321269	 -1.343860
C	 -2.412078	 -0.285320	 -0.468531
H	 -1.482241	 1.391144	 0.451970
H	 -1.549931	 -0.001174	 1.492681
C	 -0.276468	 -0.743731	 -2.299735
H	 1.322136	 0.399922	 -1.488284
H	 -0.162212	 1.299510	 -1.605064
H	 -2.262839	 0.075384	 -1.480151
H	 -2.369300	 -1.368867	 -0.491760
H	 -3.410332	 -0.003975	 -0.144961
H	 0.179582	 -1.702262	 -2.078669
H	 -1.352271	 -0.862693	 -2.228692
H	 -0.043627	 -0.478909	 -3.327345
