%nprocshared=1
%mem=2GB
#HF/6-31G* nosymm scf=tight 

Mol

0 1
O	 1.454122	 1.141725	 -2.267172
C	 0.342580	 1.485434	 -2.001141
C	 -0.616066	 0.542262	 -1.295641
C	 -0.155881	 2.877217	 -2.320286
C	 -1.047154	 -0.600408	 -2.229242
H	 -1.487191	 1.117792	 -1.002025
H	 -0.160513	 0.135839	 -0.397132
C	 0.149006	 -1.302371	 -2.876593
H	 -1.636550	 -1.304185	 -1.652446
H	 -1.698654	 -0.210003	 -3.009549
C	 0.075323	 -1.399736	 -4.404711
H	 0.247240	 -2.302033	 -2.457363
H	 1.057485	 -0.767858	 -2.606759
C	 -1.053427	 -2.288511	 -4.930067
H	 1.023541	 -1.787350	 -4.768483
H	 -0.024340	 -0.400645	 -4.824201
H	 -0.984148	 -3.291584	 -4.518035
H	 -1.004790	 -2.372263	 -6.011279
H	 -2.032469	 -1.894716	 -4.678683
H	 -0.941174	 2.821081	 -3.069571
H	 0.656022	 3.484184	 -2.696035
H	 -0.587326	 3.342598	 -1.438764

6 3 2 1 F

6 3 5 8 F

12 8 11 15 F

