%nprocshared=1
%mem=2GB
#HF/6-31G* nosymm scf=tight 

Mol

0 1
O	 1.737906	 1.486773	 -0.403255
C	 1.387150	 0.672228	 -1.194838
C	 0.070675	 -0.065482	 -1.171466
O	 2.127992	 0.300649	 -2.231283
C	 -0.823008	 0.326187	 0.001381
H	 -0.422596	 0.120471	 -2.121634
H	 0.294509	 -1.128702	 -1.158051
C	 -2.149452	 -0.435131	 -0.000098
H	 -1.010812	 1.394694	 -0.033418
H	 -0.293514	 0.143228	 0.931150
C	 -3.368779	 0.488503	 -0.000883
H	 -2.193746	 -1.087250	 -0.871175
H	 -2.195311	 -1.087803	 0.870418
C	 -3.346354	 1.505125	 -1.141597
H	 -3.422266	 1.013619	 0.950187
H	 -4.273627	 -0.111280	 -0.069069
H	 -2.469560	 2.143689	 -1.080920
H	 -4.223185	 2.144600	 -1.115337
H	 -3.327221	 1.009791	 -2.108339
C	 3.392964	 0.921049	 -2.372367
H	 3.281397	 1.989537	 -2.488186
H	 3.834450	 0.492867	 -3.258722
H	 4.013070	 0.720121	 -1.510623

15 11 8 12 F

1 2 3 6 F

9 5 3 6 F

1 2 4 20 F

