%nprocshared=1
%mem=2GB
#HF/6-31G* nosymm scf=tight 

Mol

0 1
H	 1.488449	 -1.136450	 1.235760
C	 0.599380	 -1.250631	 0.630927
O	 0.000000	 0.000000	 0.521119
H	 0.884583	 -1.643130	 -0.343903
H	 -0.062996	 -1.969559	 1.110605
C	 -1.165642	 0.000000	 -0.238270
H	 -1.228672	 0.883184	 -0.872070
H	 -2.003012	 0.000000	 0.445920
H	 -1.228672	 -0.883184	 -0.872070
