%nprocshared=1
%mem=2GB
#HF/6-31G* nosymm scf=tight 

Mol

0 1
H	 -3.457960	 0.166880	 1.449720
O	 -3.367910	 -0.300316	 2.267454
C	 -3.043259	 -1.643282	 2.012310
C	 -1.609705	 -1.833855	 1.529264
H	 -3.184960	 -2.163733	 2.950780
H	 -3.740919	 -2.074362	 1.295219
C	 -1.314720	 -1.174099	 0.179978
H	 -0.935821	 -1.437562	 2.284379
H	 -1.414703	 -2.902721	 1.459510
C	 -2.131779	 0.101129	 -0.045909
H	 -1.521081	 -1.883149	 -0.616909
H	 -0.253215	 -0.933657	 0.118863
C	 -2.148948	 1.073298	 1.139390
H	 -1.755400	 0.615885	 -0.928073
H	 -3.157365	 -0.180936	 -0.274631
C	 -2.876710	 0.558761	 2.384417
H	 -1.119871	 1.301623	 1.408990
H	 -2.594547	 2.015790	 0.824766
C	 -2.776268	 1.517747	 3.572564
H	 -2.463007	 -0.407878	 2.668265
H	 -3.926624	 0.386761	 2.159923
C	 -3.507298	 1.009504	 4.814719
H	 -1.728471	 1.683693	 3.813548
H	 -3.180298	 2.487036	 3.287744
H	 -3.104074	 0.056075	 5.144274
H	 -3.416042	 1.709687	 5.639371
H	 -4.566196	 0.868450	 4.616719

14 10 7 4 F

14 10 13 16 F

8 4 3 2 F

10 13 16 20 F

20 16 19 22 F

4 3 2 1 F

