%nprocshared=1
%mem=2GB
#HF/6-31G* nosymm scf=tight 

Mol

0 1
H	 2.866480	 -0.465706	 0.876907
C	 2.405773	 -0.024801	 0.000000
N	 0.988830	 -0.304158	 0.000000
H	 2.866480	 -0.465706	 -0.876907
H	 2.629928	 1.045948	 0.000000
C	 0.279147	 0.434866	 1.027698
C	 0.704707	 -1.723643	 0.101515
H	 0.631775	 0.170563	 2.029844
H	 0.454051	 1.496717	 0.885836
C	 -1.210219	 0.147911	 0.930553
H	 1.191225	 -2.242348	 -0.718541
H	 1.088345	 -2.145234	 1.036170
C	 -0.795944	 -1.953356	 0.028931
H	 -1.745196	 0.620170	 1.744056
H	 -1.595970	 0.536082	 -0.010451
O	 -1.462340	 -1.226116	 1.022405
H	 -1.032108	 -2.996725	 0.192101
H	 -1.162204	 -1.664047	 -0.954493
