%nprocshared=1
%mem=2GB
#HF/6-31G* nosymm scf=tight 

Mol

0 1
H	 2.926471	 -0.208910	 1.803474
C	 2.232781	 -0.502225	 1.020532
C	 0.983486	 0.372189	 1.062738
H	 1.964721	 -1.542381	 1.168796
H	 2.756773	 -0.425143	 0.073945
N	 -0.000257	 -0.000071	 0.054619
H	 0.529828	 0.261989	 2.039686
H	 1.259983	 1.426852	 0.973725
C	 -1.363055	 0.315058	 0.462241
C	 0.324269	 0.529448	 -1.263315
C	 -2.412078	 -0.285320	 -0.468531
H	 -1.482241	 1.391144	 0.451970
H	 -1.549931	 -0.001174	 1.492681
C	 -0.211999	 -0.338446	 -2.397518
H	 1.401912	 0.575010	 -1.356931
H	 -0.033826	 1.557109	 -1.374980
H	 -2.262839	 0.075384	 -1.480151
H	 -2.369300	 -1.368867	 -0.491760
H	 -3.410332	 -0.003975	 -0.144961
H	 0.190380	 -1.342359	 -2.320804
H	 -1.294123	 -0.411587	 -2.383031
H	 0.075134	 0.076480	 -3.359660
