%nprocshared=1
%mem=2GB
#HF/6-31G* nosymm scf=tight 

Mol

0 1
H	 -3.542881	 0.267597	 -0.614452
O	 -3.108537	 -0.248575	 0.050775
C	 -1.776119	 -0.073162	 0.006514
C	 -1.169707	 0.770702	 -0.919315
C	 -1.009078	 -0.772583	 0.929836
H	 -1.771518	 1.309139	 -1.631508
C	 0.202121	 0.911793	 -0.918050
H	 -1.500071	 -1.417303	 1.633777
C	 0.361808	 -0.620999	 0.918546
H	 0.683276	 1.559441	 -1.626670
C	 0.984182	 0.218375	 0.000000
H	 0.956678	 -1.162782	 1.633853
C	 2.452467	 0.370529	 0.000000
O	 3.228994	 -0.533774	 0.000000
H	 2.809473	 1.405765	 0.000000

5 3 2 1 F

