%nprocshared=1
%mem=2GB
#HF/6-31G* nosymm scf=tight 

Mol

0 1
H	 3.302813	 -0.412604	 0.007183
C	 2.242278	 -0.234601	 0.005639
C	 1.374735	 -1.238217	 -0.407863
C	 1.749736	 0.993107	 0.415657
H	 1.764733	 -2.188505	 -0.724691
C	 0.012195	 -1.012966	 -0.411081
H	 2.423865	 1.767009	 0.734831
C	 0.382604	 1.217838	 0.411968
H	 -0.674983	 -1.775320	 -0.726918
C	 -0.488460	 0.219100	 0.000000
H	 -0.006335	 2.170100	 0.729570
C	 -1.949954	 0.470334	 0.000000
O	 -2.781584	 -0.381627	 0.000000
H	 -2.238022	 1.526388	 0.000000
