%nprocshared=1
%mem=2GB
#HF/6-31G* nosymm scf=tight 

Mol

0 1
H	 -2.318326	 -0.396619	 2.284387
C	 -1.837208	 -0.279485	 1.331402
C	 -2.575483	 -0.018487	 0.189571
C	 -0.466708	 -0.388393	 1.232309
H	 -3.645474	 0.070171	 0.246138
C	 -1.942890	 0.129971	 -1.030476
H	 0.132417	 -0.589321	 2.095705
C	 0.154804	 -0.237046	 -0.000077
H	 -2.533437	 0.332329	 -1.904776
C	 -0.560599	 0.027029	 -1.172891
N	 1.611208	 -0.370857	 -0.000034
C	 0.025328	 0.207534	 -2.556017
O	 2.274126	 0.622059	 -0.008063
O	 2.068510	 -1.474748	 0.007823
H	 0.561134	 -0.674384	 -2.878912
H	 -0.775944	 0.403369	 -3.257434
H	 0.723223	 1.032806	 -2.587530
