%nprocshared=1
%mem=2GB
#HF/6-31G* nosymm scf=tight 

Mol

0 1
H	 2.254579	 -1.523238	 2.011106
O	 2.624800	 -0.801893	 1.520903
C	 1.682627	 -0.174351	 0.789003
C	 2.090234	 0.909019	 0.016922
C	 0.358605	 -0.568161	 0.785571
H	 3.124816	 1.195568	 0.036617
C	 1.172719	 1.592426	 -0.753912
H	 0.016950	 -1.399068	 1.370715
C	 -0.536158	 0.140425	 0.000000
H	 1.496055	 2.427657	 -1.346957
C	 -0.163624	 1.216112	 -0.774380
N	 -1.935604	 -0.280333	 0.000000
H	 -0.887026	 1.736355	 -1.367204
O	 -2.161694	 -1.452901	 0.000000
O	 -2.770341	 0.571417	 0.000000

4 3 2 1 F

