%nprocshared=1
%mem=2GB
#HF/6-31G* nosymm scf=tight 

Mol

0 1
O	 -1.276010	 1.052711	 -0.768302
C	 -1.204840	 0.067374	 -0.106123
C	 -2.388195	 -0.672128	 0.458071
O	 -0.067104	 -0.527208	 0.221609
H	 -2.388023	 -1.694060	 0.097175
H	 -3.300579	 -0.174919	 0.164318
H	 -2.315377	 -0.706351	 1.539059
C	 1.170111	 0.034140	 -0.238951
C	 2.252721	 -0.563670	 0.642052
C	 1.107254	 1.551455	 -0.158654
H	 1.311650	 -0.271872	 -1.265027
H	 2.252928	 -1.645215	 0.567839
H	 3.227623	 -0.198833	 0.335795
H	 2.095418	 -0.292230	 1.680430
H	 2.049044	 1.981665	 -0.484177
H	 0.321687	 1.937440	 -0.795738
H	 0.920725	 1.869706	 0.862096

8 4 2 1 F

