%nprocshared=1
%mem=2GB
#HF/6-31G* nosymm scf=tight 

Mol

0 1
H	 3.024352	 1.301732	 0.962855
C	 2.356674	 0.500082	 0.659868
C	 0.948573	 1.039929	 0.429791
H	 2.344287	 -0.252385	 1.440511
H	 2.774174	 0.046867	 -0.232782
N	 -0.000257	 -0.000071	 0.054619
H	 0.609234	 1.495416	 1.351614
H	 0.970465	 1.841248	 -0.314584
C	 -1.363055	 0.315058	 0.462241
C	 0.091940	 -0.356708	 -1.354979
C	 -2.412078	 -0.285320	 -0.468531
H	 -1.482241	 1.391144	 0.451970
H	 -1.549931	 -0.001174	 1.492681
C	 -0.319724	 -1.800112	 -1.627672
H	 1.120418	 -0.236126	 -1.670963
H	 -0.497822	 0.325604	 -1.974187
H	 -2.262839	 0.075384	 -1.480151
H	 -2.369300	 -1.368867	 -0.491760
H	 -3.410332	 -0.003975	 -0.144961
H	 0.304912	 -2.479613	 -1.058689
H	 -1.352443	 -1.991413	 -1.356665
H	 -0.210112	 -2.031783	 -2.683437
