%nprocshared=1
%mem=2GB
#HF/6-31G* nosymm scf=tight 

Mol

0 1
H	 2.193970	 -0.737580	 -0.308629
C	 1.516950	 -1.107698	 -1.088026
C	 0.223636	 -0.347035	 -1.228270
O	 1.824872	 -2.045335	 -1.749954
C	 -0.558097	 -0.297372	 0.091132
H	 -0.359219	 -0.810024	 -2.015927
H	 0.467455	 0.667534	 -1.541373
C	 -1.850991	 0.512573	 -0.019058
H	 -0.792921	 -1.311197	 0.407029
H	 0.069370	 0.131252	 0.870507
C	 -3.096943	 -0.368295	 -0.099594
H	 -1.800724	 1.150330	 -0.898172
H	 -1.931651	 1.177355	 0.838044
H	 -3.060452	 -1.020287	 -0.967456
H	 -3.996858	 0.233488	 -0.175704
H	 -3.191959	 -0.995686	 0.782074

6 3 5 9 F

4 2 3 6 F

