%nprocshared=1
%mem=2GB
#HF/6-31G* nosymm scf=tight 

Mol

0 1
H	 2.384862	 3.083990	 -0.395444
O	 1.438868	 3.047716	 -0.415122
C	 0.998035	 1.787922	 -0.207814
C	 1.863297	 0.721740	 0.001662
C	 -0.370060	 1.578764	 -0.208979
H	 2.927643	 0.886673	 0.002183
C	 1.360468	 -0.551673	 0.209638
H	 -1.039507	 2.401428	 -0.370661
C	 -0.865228	 0.300799	 0.000000
H	 2.039901	 -1.368880	 0.370644
C	 -0.005377	 -0.769847	 0.210105
C	 -2.333960	 0.069074	 0.000000
H	 -0.398119	 -1.758142	 0.371447
O	 -2.847347	 -1.003763	 0.000000
H	 -2.943845	 0.977528	 0.000000

4 3 2 1 F

