%nprocshared=1
%mem=2GB
#HF/6-31G* nosymm scf=tight 

Mol

0 1
H	 0.960342	 0.601492	 5.771267
C	 1.065626	 0.177704	 4.788362
C	 0.679934	 -1.133966	 4.556173
C	 1.586411	 0.944605	 3.758033
H	 0.276191	 -1.727638	 5.356117
C	 0.815614	 -1.678174	 3.292087
H	 1.884852	 1.961198	 3.939907
C	 1.723145	 0.401946	 2.491858
H	 0.522408	 -2.691343	 3.094121
C	 1.337513	 -0.912353	 2.255912
H	 2.125664	 0.991772	 1.691606
C	 1.463013	 -1.545621	 0.912827
O	 1.970282	 -0.730723	 0.000018
O	 1.143293	 -2.667865	 0.673646
C	 3.377318	 -0.566646	 -0.000065
H	 3.695437	 -0.028981	 -0.881264
H	 3.789299	 -1.563704	 0.000236
H	 3.695516	 -0.028316	 0.880770

12 13 15 16 F

13 12 10 6 F

