%nprocshared=1
%mem=2GB
#HF/6-31G* nosymm scf=tight 

Mol

0 1
H	 1.083777	 -4.249880	 4.281644
C	 1.132791	 -4.952399	 3.455456
C	 2.270686	 -5.953900	 3.648762
H	 0.174228	 -5.459188	 3.394933
H	 1.263069	 -4.379522	 2.541323
C	 2.372396	 -6.956046	 2.496733
H	 2.122816	 -6.488625	 4.581396
H	 3.212291	 -5.414816	 3.740746
C	 2.327327	 -6.309144	 1.112264
H	 3.290523	 -7.525271	 2.589844
H	 1.551083	 -7.665416	 2.569396
C	 3.576690	 -5.520780	 0.747826
H	 2.213532	 -7.078947	 0.350539
H	 1.456076	 -5.665663	 1.012114
C	 3.475324	 -4.538016	 -0.405696
O	 4.607350	 -5.677034	 1.330690
C	 3.142513	 -5.197708	 -1.752249
H	 4.425842	 -4.021740	 -0.466439
H	 2.710281	 -3.801675	 -0.166543
C	 3.906992	 -6.506058	 -1.962969
H	 2.073565	 -5.394231	 -1.800676
H	 3.371148	 -4.517137	 -2.568350
C	 3.584233	 -7.172245	 -3.299729
H	 3.675183	 -7.191428	 -1.151430
H	 4.975620	 -6.311267	 -1.903941
H	 2.526789	 -7.408725	 -3.374670
H	 3.837980	 -6.523738	 -4.133494
H	 4.139105	 -8.097216	 -3.419829

10 6 3 2 F

16 12 15 17 F

