%nprocshared=1
%mem=2GB
#HF/6-31G* nosymm scf=tight 

Mol

0 1
H	 3.083879	 -1.346558	 0.395444
O	 2.172668	 -1.603300	 0.415122
C	 1.365383	 -0.540424	 0.207814
C	 1.500353	 0.646139	 0.917148
C	 0.375796	 -0.664106	 -0.751796
H	 2.271135	 0.740314	 1.663513
C	 0.646528	 1.707240	 0.666709
H	 0.270456	 -1.580076	 -1.300411
C	 -0.474832	 0.402980	 -0.996372
H	 0.760701	 2.620478	 1.221992
C	 -0.345266	 1.592417	 -0.290523
C	 -1.540155	 0.276842	 -2.025958
H	 -1.009569	 2.415358	 -0.486673
O	 -1.629286	 -0.624180	 -2.797165
H	 -2.269439	 1.092485	 -2.036843

11 9 12 14 F

