%nprocshared=1
%mem=2GB
#HF/6-31G* nosymm scf=tight 

Mol

0 1
H	 -2.467344	 -2.019639	 -1.143453
C	 -1.924060	 -1.225438	 -0.666523
C	 -2.587838	 -0.153050	 -0.095268
C	 -0.547122	 -1.264218	 -0.616660
H	 -3.661513	 -0.104512	 -0.123687
C	 -1.875662	 0.862178	 0.515344
H	 -0.004351	 -2.078920	 -1.048443
C	 0.154804	 -0.237046	 -0.000077
H	 -2.409190	 1.685561	 0.952933
C	 -0.484072	 0.860521	 0.586621
N	 1.611208	 -0.370857	 -0.000034
C	 0.192057	 2.023454	 1.278983
O	 2.274126	 0.622059	 -0.008063
O	 2.068510	 -1.474748	 0.007823
H	 0.857448	 2.551833	 0.610255
H	 -0.563887	 2.712979	 1.633214
H	 0.783892	 1.694642	 2.122037
