%nprocshared=1
%mem=2GB
#HF/6-31G* nosymm scf=tight 

Mol

0 1
H	 -3.042581	 -0.665861	 0.004336
O	 -2.245037	 -1.176175	 0.000806
C	 -1.162163	 -0.365336	 0.001020
C	 -0.446783	 -0.080692	 -1.148127
C	 -0.780381	 0.182596	 1.219561
H	 -0.739891	 -0.506810	 -2.092841
C	 0.655289	 0.758669	 -1.065531
H	 -1.357500	 -0.061703	 2.092698
C	 0.317977	 1.020538	 1.300653
H	 1.215306	 0.980257	 -1.956777
C	 1.039841	 1.306207	 0.141654
C	 0.719832	 1.636075	 2.620777
H	 1.898029	 1.953134	 0.189892
H	 1.795034	 1.596965	 2.759344
H	 0.254300	 1.123736	 3.454233
H	 0.422410	 2.680064	 2.665201
