%nprocshared=1
%mem=2GB
#HF/6-31G* nosymm scf=tight 
prop=(read,field)

Mol

0 1
O	 0.750046	 1.307710	 -0.000040
C	 0.576441	 0.131727	 -0.000108
C	 -0.766587	 -0.556759	 -0.000461
O	 1.568635	 -0.749303	 -0.000005
C	 -1.945022	 0.412408	 0.000161
H	 -0.796719	 -1.211207	 -0.867467
H	 -0.796662	 -1.212348	 0.865687
C	 -3.287599	 -0.317013	 0.000105
H	 -1.875895	 1.060622	 -0.866812
H	 -1.875630	 1.059733	 0.867761
H	 -3.394553	 -0.949151	 -0.877058
H	 -4.111586	 0.388995	 0.000015
H	 -3.394762	 -0.949145	 0.877259
C	 2.887012	 -0.232496	 0.000322
H	 3.059298	 0.369613	 -0.880203
H	 3.540379	 -1.090970	 0.000050
H	 3.059211	 0.368998	 0.881266

@grid.dat /N
