%nprocshared=1
%mem=2GB
#HF/6-31G* nosymm scf=tight 

Mol

0 1
H	 -3.420663	 1.227371	 -1.044276
O	 -3.452007	 0.283848	 -0.965577
C	 -3.181085	 -0.079926	 0.364119
C	 -1.765924	 0.277073	 0.805136
H	 -3.327791	 -1.152017	 0.410903
H	 -3.905698	 0.375695	 1.036898
C	 -0.677594	 -0.417312	 -0.014550
H	 -1.637766	 1.358238	 0.744969
H	 -1.659588	 0.017670	 1.857098
C	 0.738335	 -0.034840	 0.421385
H	 -0.814977	 -0.178223	 -1.064632
H	 -0.802730	 -1.495410	 0.071702
C	 1.031258	 1.457303	 0.243086
H	 0.876862	 -0.318914	 1.461833
H	 1.462266	 -0.612719	 -0.151837
C	 1.077398	 1.932482	 -1.213702
H	 1.975316	 1.698988	 0.728924
H	 0.266821	 2.026906	 0.767496
C	 1.092897	 3.452438	 -1.386610
H	 0.210747	 1.531877	 -1.734011
H	 1.949387	 1.504347	 -1.704150
H	 0.238222	 3.909583	 -0.894993
H	 1.050903	 3.721289	 -2.437702
H	 1.990729	 3.899521	 -0.972873

20 16 13 17 F

17 13 10 7 F

11 7 4 3 F

1 2 3 5 F

7 4 3 2 F

