%nprocshared=1
%mem=2GB
#HF/6-31G* nosymm scf=tight 

Mol

0 1
H	 3.239579	 -1.977291	 -0.099937
C	 2.362497	 -2.518688	 -0.439595
C	 1.129385	 -1.616328	 -0.451486
H	 2.576917	 -2.903420	 -1.432688
H	 2.223687	 -3.369644	 0.221353
C	 -0.127859	 -2.340084	 -0.922563
H	 1.297730	 -0.760011	 -1.097064
H	 0.962453	 -1.221799	 0.549450
N	 -1.268658	 -1.446027	 -0.948991
H	 0.029205	 -2.711462	 -1.931707
H	 -0.301922	 -3.219258	 -0.293172
C	 -1.217365	 -0.386708	 0.039277
H	 -1.355622	 -1.044301	 -1.863373
C	 -2.452633	 0.504241	 -0.042481
H	 -1.172857	 -0.848333	 1.022069
H	 -0.315698	 0.227728	 -0.054795
C	 -3.758029	 -0.289423	 -0.010781
H	 -2.394220	 1.093569	 -0.952170
H	 -2.440793	 1.210787	 0.785871
H	 -3.816659	 -0.981993	 -0.845726
H	 -4.617837	 0.370165	 -0.069296
H	 -3.847478	 -0.867502	 0.904682

15 12 14 18 F

