%nprocshared=1
%mem=2GB
#HF/6-31G* nosymm scf=tight 

Mol

0 1
H	 -3.489899	 1.228218	 -1.029938
O	 -3.452007	 0.283848	 -0.965577
C	 -3.181085	 -0.079926	 0.364119
C	 -1.765924	 0.277073	 0.805136
H	 -3.327791	 -1.152017	 0.410903
H	 -3.905698	 0.375695	 1.036898
C	 -1.460264	 1.773222	 0.723710
H	 -1.613342	 -0.074132	 1.826085
H	 -1.063976	 -0.278633	 0.185717
C	 -1.418963	 2.300272	 -0.712149
H	 -0.511920	 1.970563	 1.214026
H	 -2.214534	 2.320061	 1.287126
C	 -2.621377	 1.847868	 -1.544985
H	 -1.370619	 3.386339	 -0.688924
H	 -0.502233	 1.964137	 -1.195081
C	 -2.675182	 0.342335	 -1.828942
H	 -2.629975	 2.391060	 -2.488682
H	 -3.532727	 2.133177	 -1.023586
C	 -4.000980	 -0.147360	 -2.414486
H	 -2.487388	 -0.190106	 -0.899679
H	 -1.862517	 0.073893	 -2.501041
H	 -4.834108	 0.118307	 -1.769151
H	 -3.999214	 -1.227756	 -2.522095
H	 -4.193588	 0.276110	 -3.394660

20 16 13 17 F

17 13 10 7 F

13 10 7 11 F

11 7 4 3 F

1 2 3 5 F

