%nprocshared=1
%mem=2GB
#HF/6-31G* nosymm scf=tight 

Mol

0 1
H	 2.866480	 -0.465706	 0.876907
C	 2.405773	 -0.024801	 0.000000
N	 0.988830	 -0.304158	 0.000000
H	 2.866480	 -0.465706	 -0.876907
H	 2.629928	 1.045948	 0.000000
C	 0.701509	 -1.707420	 0.232960
C	 0.333578	 0.158784	 -1.209255
H	 1.126983	 -2.341214	 -0.551753
H	 1.145106	 -2.008426	 1.176815
C	 -0.802228	 -1.921480	 0.287209
H	 0.507760	 1.224297	 -1.321455
H	 0.732242	 -0.339021	 -2.099062
C	 -1.160402	 -0.104766	 -1.116760
H	 -1.036469	 -2.974604	 0.371340
H	 -1.213464	 -1.404048	 1.152148
O	 -1.415954	 -1.461396	 -0.883951
H	 -1.652991	 0.152493	 -2.045303
H	 -1.588489	 0.498140	 -0.317876
