%nprocshared=1
%mem=2GB
#HF/6-31G* nosymm scf=tight 
prop=(read,field)

Mol

0 1
H	 0.998641	 0.743899	 1.266824
C	 0.247963	 -0.037480	 1.209632
N	 -0.528249	 0.128988	 -0.000000
H	 -0.398498	 0.061961	 2.074060
H	 0.763540	 -0.999304	 1.275517
C	 0.247963	 -0.037480	 -1.209632
H	 -1.296215	 -0.512305	 -0.000000
H	 0.998641	 0.743899	 -1.266824
H	 -0.398498	 0.061961	 -2.074060
H	 0.763540	 -0.999304	 -1.275517

@grid.dat /N
