%nprocshared=1
%mem=2GB
#HF/6-31G* nosymm scf=tight 

Mol

0 1
O	 -1.487788	 1.240889	 -0.102860
C	 -1.083277	 0.139568	 0.115197
C	 0.323299	 -0.082943	 0.642902
C	 -1.933017	 -1.084621	 -0.143902
C	 1.355627	 -0.005344	 -0.493127
H	 0.396251	 -1.044647	 1.143147
H	 0.528637	 0.693580	 1.371677
C	 0.732191	 -0.262937	 -1.863609
H	 1.830819	 0.973155	 -0.491197
H	 2.137530	 -0.732204	 -0.299623
H	 1.481227	 -0.208605	 -2.646989
H	 -0.038258	 0.468507	 -2.089932
H	 0.277616	 -1.248103	 -1.906692
H	 -1.393885	 -1.806447	 -0.750509
H	 -2.850323	 -0.799888	 -0.640100
H	 -2.169004	 -1.571158	 0.798858

4 2 3 5 F

