%nprocshared=1
%mem=2GB
#HF/6-31G* nosymm scf=tight 

Mol

0 1
O	 -2.042549	 -1.228399	 -0.269030
C	 -1.653912	 -0.146171	 0.050137
C	 -0.332303	 0.024011	 0.778412
C	 -2.438579	 1.106236	 -0.272369
C	 -0.539096	 0.708329	 2.138860
H	 0.152383	 -0.938215	 0.918353
H	 0.309023	 0.639020	 0.156811
C	 -0.976388	 2.167611	 2.003575
H	 0.381741	 0.662317	 2.717674
H	 -1.285483	 0.150896	 2.696818
C	 -2.119744	 2.352117	 1.006629
H	 -1.280448	 2.545755	 2.977218
H	 -0.125031	 2.768842	 1.693284
H	 -2.998469	 1.789096	 1.308129
H	 -1.833673	 2.012523	 0.015528
H	 -2.406623	 3.396006	 0.929022
H	 -3.277823	 0.863061	 -0.908988
H	 -1.806773	 1.843019	 -0.759671
H	 -2.802853	 1.554979	 0.648059

11 8 5 9 F

9 5 3 2 F

