%nprocshared=1
%mem=2GB
#HF/6-31G* nosymm scf=tight 

Mol

0 1
H	 -0.000158	 1.970498	 0.756846
O	 -0.000074	 1.880206	 -0.189275
C	 -0.000015	 0.544847	 -0.545111
C	 -1.201467	 0.244934	 -1.435365
C	 0.077147	 -0.325359	 0.705004
H	 0.890504	 0.358419	 -1.126766
F	 -1.139696	 0.981194	 -2.524241
F	 -1.248976	 -1.018794	 -1.800183
F	 -2.332452	 0.537771	 -0.813499
F	 1.183178	 -0.054732	 1.364543
F	 0.077186	 -1.610168	 0.419269
F	 -0.943704	 -0.081927	 1.511343

7 4 3 6 F

