%nprocshared=1
%mem=2GB
#HF/6-31G* nosymm scf=tight 

Mol

0 1
H	 -1.836216	 1.387520	 -0.000064
C	 -1.301823	 0.443321	 -0.000031
O	 -0.003969	 0.658512	 0.000451
O	 -1.829879	 -0.616434	 -0.000857
C	 0.850537	 -0.484732	 -0.000064
C	 0.703124	 -1.162299	 1.345110
H	 1.866721	 -0.160292	 -0.177337
H	 0.560696	 -1.136778	 -0.812544
H	 0.990086	 -0.491946	 2.147178
H	 1.339441	 -2.040139	 1.386697
H	 -0.322224	 -1.473221	 1.509052

7 5 3 2 F

