%nprocshared=1
%mem=2GB
#HF/6-31G* nosymm scf=tight 

Mol

0 1
H	 -2.646374	 -0.642757	 1.268656
C	 -2.083525	 -0.384536	 0.393091
O	 -0.807605	 -0.127164	 0.768327
F	 -2.118945	 -1.383102	 -0.486752
F	 -2.621877	 0.670592	 -0.209486
C	 -0.609541	 0.559486	 1.952375
C	 -1.415859	 -0.161548	 3.024811
Cl	 -1.137564	 2.243422	 1.801492
H	 0.423411	 0.567032	 2.253585
F	 -2.705423	 -0.011728	 2.808670
F	 -1.133014	 0.369862	 4.197432
F	 -1.141722	 -1.442389	 3.072465

10 7 6 9 F

9 6 3 2 F

