%nprocshared=1
%mem=2GB
#HF/6-31G* nosymm scf=tight 
prop=(read,field)

Mol

0 1
H	 0.037699	 0.930871	 0.304455
N	 0.000003	 -0.000003	 -0.065729
H	 -0.825079	 -0.432667	 0.304454
H	 0.787334	 -0.498168	 0.304447

@grid.dat /N
