%nprocshared=1
%mem=2GB
#HF/6-31G* nosymm scf=tight 

Mol

0 1
H	 1.148083	 -1.049780	 0.784252
O	 1.319262	 -0.618148	 -0.041729
C	 0.709265	 0.639550	 -0.033818
C	 -0.152037	 0.915326	 -1.238262
H	 1.513227	 1.365274	 0.012785
H	 0.114811	 0.775668	 0.869023
C	 -0.230015	 0.151926	 -2.309666
H	 -0.734784	 1.821882	 -1.183076
H	 0.349614	 -0.748118	 -2.406513
H	 -0.868519	 0.410177	 -3.135253

5 3 4 7 F

3 4 7 9 F

