%nprocshared=1
%mem=2GB
#HF/6-31G* nosymm scf=tight 

Mol

0 1
O	 0.391030	 1.298905	 0.000133
C	 0.503002	 0.111612	 0.000005
C	 -0.702327	 -0.811998	 -0.000075
C	 1.863306	 -0.554493	 0.000030
C	 -1.897000	 -0.256838	 0.765891
H	 -0.967385	 -1.014982	 -1.036083
H	 -0.389351	 -1.769470	 0.412307
H	 -2.226417	 0.684021	 0.342229
H	 -2.725647	 -0.956454	 0.732152
H	 -1.643259	 -0.077157	 1.803460
H	 1.974395	 -1.189404	 -0.874166
H	 2.638695	 0.198920	 -0.000196
H	 1.974487	 -1.188655	 0.874727
