%nprocshared=1
%mem=2GB
#HF/6-31G* nosymm scf=tight 

Mol

0 1
H	 1.148083	 -1.049780	 0.784252
O	 1.319262	 -0.618148	 -0.041729
C	 0.709265	 0.639550	 -0.033818
C	 -0.010892	 0.968147	 1.247579
H	 0.004681	 0.639088	 -0.857690
H	 1.435629	 1.423295	 -0.246335
C	 -0.223561	 0.126445	 2.239080
H	 -0.369474	 1.983312	 1.320657
H	 0.103276	 -0.896525	 2.192817
H	 -0.746263	 0.430075	 3.128219

5 3 4 7 F

3 4 7 9 F

