%nprocshared=1
%mem=2GB
#HF/6-31G* nosymm scf=tight 

Mol

0 1
H	 1.148083	 -1.049780	 0.784252
O	 1.319262	 -0.618148	 -0.041729
C	 0.709265	 0.639550	 -0.033818
C	 -0.203924	 0.875197	 1.140548
H	 0.142101	 0.706352	 -0.955266
H	 1.456002	 1.432068	 -0.070197
C	 -0.564731	 -0.037648	 2.019921
H	 -0.574574	 1.884385	 1.233511
H	 -0.229587	 -1.056426	 1.947816
H	 -1.221468	 0.201428	 2.836937

5 3 4 7 F

3 4 7 9 F

