%nprocshared=1
%mem=2GB
#HF/6-31G* nosymm scf=tight 

Mol

0 1
H	 -2.273092	 1.173159	 0.000295
O	 -1.438904	 1.618192	 0.000114
C	 -0.409536	 0.736003	 0.000030
C	 0.819990	 1.215304	 -0.423921
C	 -0.563073	 -0.588834	 0.402739
H	 0.894412	 2.243543	 -0.725874
C	 1.915761	 0.373838	 -0.450941
C	 0.555605	 -1.412332	 0.365336
C	 -1.905446	 -1.109903	 0.864830
H	 2.866925	 0.751867	 -0.780903
C	 1.789198	 -0.948094	 -0.055399
H	 0.453522	 -2.438541	 0.673262
H	 -2.662070	 -1.031107	 0.086849
H	 -1.836651	 -2.155267	 1.137699
H	 -2.270877	 -0.574148	 1.738571
H	 2.637191	 -1.608221	 -0.073845
