%nprocshared=1
%mem=2GB
#HF/6-31G* nosymm scf=tight 

Mol

0 1
H	 -0.353827	 2.294594	 0.785158
C	 0.452493	 1.582644	 0.967538
N	 0.538815	 0.649616	 0.000000
O	 1.156987	 1.658127	 1.930449
C	 1.521968	 -0.411503	 0.000000
H	 -0.111188	 0.699690	 -0.750514
H	 2.150599	 -0.357004	 -0.881901
H	 0.999455	 -1.354525	 0.000000
H	 2.150599	 -0.357004	 0.881901

1 2 3 6 F

