%nprocshared=1
%mem=2GB
#HF/6-31G* nosymm scf=tight 

Mol

0 1
H	 -2.798360	 -0.862255	 -0.071053
N	 -1.863561	 -0.715187	 0.256814
C	 -1.344686	 0.554728	 -0.219830
H	 -1.300452	 -1.461917	 -0.101532
C	 -1.446368	 1.597794	 0.873244
H	 -0.307479	 0.507328	 -0.554427
H	 -1.944746	 0.879723	 -1.064275
O	 -2.801073	 1.822327	 1.140538
H	 -0.939727	 1.250560	 1.773456
H	 -0.968774	 2.518567	 0.545654
C	 -3.043612	 2.827241	 2.072682
H	 -4.114951	 2.907853	 2.196905
H	 -2.594887	 2.592917	 3.036384
H	 -2.654432	 3.785411	 1.734658

8 5 3 6 F

5 8 11 13 F

11 8 5 3 F

