%nprocshared=1
%mem=2GB
#HF/6-31G* nosymm scf=tight 

Mol

0 1
O	 -0.488453	 0.057968	 1.132425
C	 -0.451170	 -1.129930	 1.097049
C	 0.801727	 -1.959116	 0.945507
O	 -1.528589	 -1.897310	 1.185968
C	 1.124911	 -2.785238	 2.184071
H	 1.613075	 -1.280220	 0.700432
H	 0.669725	 -2.590969	 0.072237
H	 1.272053	 -2.149836	 3.048928
H	 2.030738	 -3.360307	 2.024106
H	 0.320287	 -3.472711	 2.414906
C	 -1.810714	 -2.491379	 2.448857
C	 -0.738753	 -3.527557	 2.712569
H	 -2.796454	 -2.935123	 2.417348
H	 -1.817126	 -1.720685	 3.207527
H	 -0.741802	 -4.289206	 1.941181
H	 -0.916165	 -4.007303	 3.669657
H	 0.242939	 -3.068210	 2.735766

2 4 11 13 F

4 2 3 6 F

