%nprocshared=1
%mem=2GB
#HF/6-31G* nosymm scf=tight 

Mol

0 1
O	 -1.276010	 1.052711	 -0.768302
C	 -1.204840	 0.067374	 -0.106123
C	 -2.388195	 -0.672128	 0.458071
O	 -0.067104	 -0.527208	 0.221609
H	 -2.388023	 -1.694060	 0.097175
H	 -3.300579	 -0.174919	 0.164318
H	 -2.315377	 -0.706351	 1.539059
C	 1.108273	 -0.258846	 -0.555822
C	 1.234187	 1.253267	 -0.612802
C	 0.972616	 -0.897392	 -1.929322
H	 1.953936	 -0.685206	 -0.036613
H	 1.312304	 1.668872	 0.385405
H	 2.121200	 1.533678	 -1.171291
H	 0.369519	 1.691997	 -1.099134
H	 1.849171	 -0.678506	 -2.530783
H	 0.880745	 -1.972795	 -1.845396
H	 0.099413	 -0.508704	 -2.443566

11 8 4 2 F

