%nprocshared=1
%mem=2GB
#HF/6-31G* nosymm scf=tight 

Mol

0 1
H	 -1.836216	 1.387520	 -0.000064
C	 -1.301823	 0.443321	 -0.000031
O	 -0.003969	 0.658512	 0.000451
O	 -1.829879	 -0.616434	 -0.000857
C	 0.850537	 -0.484732	 0.000380
C	 -0.033759	 -1.712466	 -0.031418
H	 1.468891	 -0.457782	 0.887076
H	 1.500267	 -0.434817	 -0.862553
H	 -0.683085	 -1.741625	 0.836083
H	 0.579318	 -2.607658	 -0.032023
H	 -0.651633	 -1.718696	 -0.921969

5 3 2 4 F

