%nprocshared=1
%mem=2GB
#HF/6-31G* nosymm scf=tight 
prop=(read,field)

Mol

0 1
H	 2.845683	 -0.323163	 0.022290
C	 1.899868	 0.072012	 -0.330090
C	 0.778191	 -0.508042	 0.517948
H	 1.782197	 -0.206832	 -1.370797
H	 1.921975	 1.149912	 -0.254272
N	 -0.541200	 0.005184	 0.058418
H	 0.716446	 -1.581253	 0.454692
H	 0.859439	 -0.198602	 1.550066
O	 -1.347976	 -0.791720	 -0.306725
O	 -0.700673	 1.187605	 0.089223

@grid.dat /N
