%nprocshared=1
%mem=2GB
#HF/6-31G* nosymm scf=tight 
prop=(read,field)

Mol

0 1
H	 1.967421	 -0.896764	 1.182537
C	 1.951412	 -0.223449	 0.316978
C	 0.692321	 0.589580	 0.160097
O	 2.884500	 -0.172972	 -0.417139
C	 -0.557844	 -0.297392	 0.091092
H	 0.791898	 1.202235	 -0.728283
H	 0.616424	 1.253449	 1.020532
C	 -1.850738	 0.512553	 -0.019098
H	 -0.476500	 -0.965701	 -0.763027
H	 -0.604546	 -0.930678	 0.975188
C	 -3.096690	 -0.368315	 -0.099634
H	 -1.800471	 1.150310	 -0.898212
H	 -1.931398	 1.177335	 0.838004
H	 -3.060199	 -1.020307	 -0.967496
H	 -3.996605	 0.233468	 -0.175744
H	 -3.191706	 -0.995706	 0.782034

@grid.dat /N
