%nprocshared=1
%mem=2GB
#HF/6-31G* nosymm scf=tight 

Mol

0 1
O	 2.544561	 1.850230	 -0.436504
C	 1.838777	 1.723109	 -1.389639
C	 0.569680	 0.890692	 -1.352025
C	 2.167518	 2.390316	 -2.709457
C	 0.291004	 0.242674	 0.000989
H	 -0.258633	 1.532446	 -1.649411
H	 0.643551	 0.134968	 -2.132938
C	 -0.994322	 -0.586602	 0.000262
H	 0.231019	 1.016052	 0.760210
H	 1.134073	 -0.383189	 0.276087
C	 -2.259874	 0.272531	 0.000494
H	 -1.004862	 -1.240012	 -0.870939
H	 -1.005220	 -1.241071	 0.870675
C	 -3.471197	 -0.433814	 -0.610888
H	 -2.068440	 1.194614	 -0.545524
H	 -2.493873	 0.567468	 1.021892
C	 -4.731405	 0.430792	 -0.607274
H	 -3.238909	 -0.728059	 -1.632302
H	 -3.664472	 -1.354941	 -0.064968
H	 -4.581101	 1.345056	 -1.174443
H	 -5.572173	 -0.096720	 -1.047208
H	 -5.010364	 0.712778	 0.404067
H	 1.363265	 3.056339	 -3.008133
H	 3.085857	 2.952964	 -2.615040
H	 2.277291	 1.646185	 -3.492945

9 5 8 12 F

15 11 14 18 F

1 2 3 6 F

9 5 3 6 F

