%nprocshared=1
%mem=2GB
#HF/6-31G* nosymm scf=tight 

Mol

0 1
O	 0.391030	 1.298905	 0.000133
C	 0.503002	 0.111612	 0.000005
C	 -0.702327	 -0.811998	 -0.000075
C	 1.863306	 -0.554493	 0.000030
C	 -1.431438	 -0.864455	 1.337010
H	 -1.372418	 -0.486427	 -0.793645
H	 -0.363323	 -1.803374	 -0.295058
H	 -1.791745	 0.116655	 1.621303
H	 -2.280554	 -1.537356	 1.278166
H	 -0.773705	 -1.211969	 2.124310
H	 1.974395	 -1.189404	 -0.874166
H	 2.638695	 0.198920	 -0.000196
H	 1.974487	 -1.188655	 0.874727
