%nprocshared=1
%mem=2GB
#HF/6-31G* nosymm scf=tight 

Mol

0 1
H	 -3.561337	 0.445705	 0.401055
O	 -3.107012	 -0.263293	 -0.033141
C	 -1.775923	 -0.075050	 -0.004252
C	 -1.197321	 1.037178	 0.600040
C	 -0.981148	 -1.042110	 -0.606907
H	 -1.820525	 1.782055	 1.064891
C	 0.174545	 1.177903	 0.599214
H	 -1.450996	 -1.890877	 -1.066372
C	 0.389400	 -0.887252	 -0.599539
H	 0.634414	 2.030954	 1.061733
C	 0.984182	 0.218375	 0.000000
H	 1.005756	 -1.636377	 -1.066422
C	 2.452467	 0.370529	 0.000000
O	 3.228994	 -0.533774	 0.000000
H	 2.809473	 1.405765	 0.000000

5 3 2 1 F

