%nprocshared=1
%mem=2GB
#HF/6-31G* nosymm scf=tight 

Mol

0 1
H	 1.999832	 0.069849	 0.727879
C	 1.138537	 -0.484033	 0.414394
C	 1.131025	 -1.867295	 0.411660
C	 0.000000	 0.183220	 0.000000
H	 2.005206	 -2.404452	 0.729835
C	 0.000000	 -2.555744	 0.000000
N	 0.000000	 1.642018	 0.000000
C	 -1.138537	 -0.484034	 -0.414394
H	 0.000000	 -3.630640	 0.000000
C	 -1.131025	 -1.867295	 -0.411660
O	 1.057097	 2.196749	 0.000000
O	 -1.057097	 2.196749	 0.000000
H	 -1.999832	 0.069849	 -0.727879
H	 -2.005206	 -2.404452	 -0.729835
