%nprocshared=1
%mem=2GB
#HF/6-31G* nosymm scf=tight 

Mol

0 1
O	 -0.682937	 1.318834	 -0.186099
C	 -0.860635	 0.152188	 -0.042321
C	 -2.173363	 -0.477127	 0.338347
O	 0.083258	 -0.765189	 -0.202595
H	 -2.477673	 -1.180929	 -0.427595
H	 -2.923125	 0.290956	 0.455536
H	 -2.058825	 -1.029004	 1.264191
C	 1.391937	 -0.334737	 -0.569838
C	 1.410870	 0.259766	 -1.965852
H	 2.075018	 -1.166539	 -0.488319
H	 1.650707	 0.408064	 0.170962
H	 2.401035	 0.646333	 -2.186915
H	 1.165043	 -0.489602	 -2.707732
H	 0.701350	 1.076564	 -2.042259

8 4 2 1 F

