%nprocshared=1
%mem=2GB
#HF/6-31G* nosymm scf=tight 

Mol

0 1
H	 0.784333	 3.366818	 -1.564362
O	 1.512923	 2.896223	 -1.183053
C	 1.105816	 1.744130	 -0.613735
C	 2.077863	 0.950166	 -0.013163
C	 -0.215698	 1.341975	 -0.611066
H	 3.098047	 1.284603	 -0.028483
C	 1.723877	 -0.240731	 0.586440
H	 -0.985129	 1.933861	 -1.066227
C	 -0.536158	 0.140425	 0.000000
H	 2.480766	 -0.847504	 1.047746
C	 0.402498	 -0.666813	 0.602361
N	 -1.935604	 -0.280333	 0.000000
H	 0.112487	 -1.588037	 1.063496
O	 -2.161694	 -1.452901	 0.000000
O	 -2.770341	 0.571417	 0.000000

4 3 2 1 F

