%nprocshared=1
%mem=2GB
#HF/6-31G* nosymm scf=tight 

Mol

0 1
H	 5.268524	 0.192471	 1.070992
C	 4.673736	 -0.214914	 0.259335
C	 3.185378	 -0.203514	 0.605509
H	 4.871837	 0.380453	 -0.627026
H	 5.025590	 -1.224632	 0.065769
C	 2.317601	 -0.778379	 -0.516234
H	 2.874655	 0.814325	 0.817774
H	 3.023650	 -0.778480	 1.515976
C	 1.063230	 -1.496272	 -0.017786
H	 2.023292	 0.016692	 -1.192169
H	 2.908001	 -1.484540	 -1.095721
C	 -0.003622	 -0.572228	 0.550731
H	 0.598152	 -2.037297	 -0.840443
H	 1.315990	 -2.250436	 0.724189
C	 -1.087459	 -1.197049	 1.411898
O	 -0.005705	 0.599120	 0.317611
C	 -1.955185	 -2.221870	 0.666272
H	 -1.702207	 -0.386665	 1.784828
H	 -0.615615	 -1.678520	 2.266436
C	 -3.095847	 -2.757883	 1.533561
H	 -2.369694	 -1.758577	 -0.226565
H	 -1.343375	 -3.054717	 0.329338
C	 -3.966682	 -3.778761	 0.802561
H	 -3.713505	 -1.927521	 1.866817
H	 -2.681835	 -3.211664	 2.431376
H	 -4.420808	 -3.343951	 -0.083123
H	 -3.383002	 -4.638774	 0.486639
H	 -4.766762	 -4.139050	 1.441264

12 15 17 21 F

16 12 15 17 F

