%nprocshared=1
%mem=2GB
#HF/6-31G* nosymm scf=tight 

Mol

0 1
O	 -0.488453	 0.057968	 1.132425
C	 -0.451170	 -1.129930	 1.097049
C	 0.801727	 -1.959116	 0.945507
O	 -1.528589	 -1.897310	 1.185968
C	 1.124911	 -2.785238	 2.184071
H	 1.613075	 -1.280220	 0.700432
H	 0.669725	 -2.590969	 0.072237
H	 1.272053	 -2.149836	 3.048928
H	 2.030738	 -3.360307	 2.024106
H	 0.320287	 -3.472711	 2.414906
C	 -2.626321	 -1.404382	 1.947156
C	 -2.202153	 -1.393195	 3.400520
H	 -3.482947	 -2.044464	 1.785687
H	 -2.881197	 -0.413280	 1.597377
H	 -1.945021	 -2.392122	 3.733966
H	 -3.013088	 -1.022675	 4.019186
H	 -1.340005	 -0.751981	 3.544749

2 4 11 13 F

4 2 3 6 F

