%nprocshared=1
%mem=2GB
#HF/6-31G* nosymm scf=tight 

Mol

0 1
H	 -3.135461	 -1.215070	 0.001379
O	 -2.310168	 -0.871793	 -0.309793
C	 -2.026376	 0.340750	 0.341611
C	 -0.673256	 0.843270	 -0.132153
H	 -2.792215	 1.080697	 0.115987
H	 -2.013526	 0.200402	 1.421792
C	 0.486613	 -0.083066	 0.235839
H	 -0.715586	 0.970948	 -1.210718
H	 -0.508072	 1.829858	 0.297090
C	 0.952695	 -0.948811	 -0.935941
H	 0.185557	 -0.718896	 1.062034
H	 1.323376	 0.515391	 0.594332
C	 -0.019179	 -2.082204	 -1.262367
H	 1.083521	 -0.322332	 -1.815785
H	 1.931941	 -1.367347	 -0.711558
H	 -0.998943	 -1.693616	 -1.524954
H	 0.335755	 -2.677593	 -2.098118
H	 -0.145545	 -2.747331	 -0.412574

14 10 7 11 F

2 3 4 8 F

1 2 3 4 F

