%nprocshared=1
%mem=2GB
#HF/6-31G* nosymm scf=tight 

Mol

0 1
H	 -2.273092	 1.173159	 0.000295
O	 -1.438904	 1.618192	 0.000114
C	 -0.409536	 0.736003	 0.000030
C	 -0.340367	 -0.138782	 1.072954
C	 0.539288	 0.697573	 -1.019380
H	 -1.092489	 -0.075085	 1.837313
C	 0.681480	 -1.066515	 1.141153
C	 1.555576	 -0.245409	 -0.924877
C	 0.462153	 1.652982	 -2.189103
H	 0.729505	 -1.742410	 1.976230
C	 1.637569	 -1.125039	 0.139931
H	 2.296453	 -0.287921	 -1.704388
H	 0.528096	 2.691474	 -1.871093
H	 1.277498	 1.478810	 -2.879647
H	 -0.463024	 1.535743	 -2.749727
H	 2.435119	 -1.844030	 0.186459
