%nprocshared=1
%mem=2GB
#HF/6-31G* nosymm scf=tight 

Mol

0 1
H	 -2.503778	 -0.545042	 0.663764
N	 -1.732901	 0.094659	 0.666892
C	 -0.563778	 -0.502042	 0.037919
H	 -1.542287	 0.313835	 1.626258
C	 0.575259	 0.508231	 -0.048326
H	 -0.847533	 -0.807206	 -0.964854
H	 -0.211206	 -1.400815	 0.550408
C	 1.954651	 -0.143624	 0.035137
H	 0.475158	 1.060484	 -0.977307
H	 0.469181	 1.234488	 0.755973
H	 2.103292	 -0.853109	 -0.774172
H	 2.742821	 0.599562	 -0.030094
H	 2.083613	 -0.679371	 0.971560

1 2 3 6 F

