%nprocshared=1
%mem=2GB
#HF/6-31G* nosymm scf=tight 

Mol

0 1
H	 2.652209	 0.763231	 0.000000
O	 2.263154	 -0.100023	 0.000000
C	 0.912879	 -0.015685	 0.000000
C	 0.274580	 0.024183	 1.232707
C	 0.171095	 0.030647	 -1.169057
H	 0.868328	 -0.012902	 2.127076
C	 -1.103083	 0.110232	 1.284191
H	 0.666965	 -0.000325	 -2.124920
C	 -1.211887	 0.117028	 -1.102610
H	 -1.592687	 0.140813	 2.241290
C	 -1.857763	 0.157369	 0.119223
H	 -1.780360	 0.152535	 -2.014898
H	 -2.929203	 0.224291	 0.167206
