%nprocshared=1
%mem=2GB
#HF/6-31G* nosymm scf=tight 

Mol

0 1
H	 2.623882	 1.911175	 -1.274089
O	 3.103274	 1.462600	 -1.955290
C	 3.481662	 0.186206	 -1.506185
C	 2.315155	 -0.792112	 -1.423228
H	 4.210166	 -0.173456	 -2.221447
H	 3.982760	 0.254795	 -0.541314
C	 1.245583	 -0.400051	 -0.400890
H	 1.864650	 -0.875945	 -2.408816
H	 2.713198	 -1.773795	 -1.171778
C	 0.115918	 -1.429151	 -0.302766
H	 0.832185	 0.567960	 -0.670002
H	 1.707595	 -0.282313	 0.579428
C	 0.579824	 -2.886769	 -0.200376
H	 -0.512369	 -1.190499	 0.553474
H	 -0.518995	 -1.330860	 -1.180789
C	 0.727785	 -3.417141	 1.228361
H	 -0.136855	 -3.511425	 -0.729518
H	 1.526011	 -3.000648	 -0.727253
C	 1.089510	 -4.903113	 1.278129
H	 -0.203924	 -3.256926	 1.769064
H	 1.489685	 -2.852392	 1.760217
C	 1.244105	 -5.433542	 2.703053
H	 0.324002	 -5.477389	 0.760738
H	 2.015148	 -5.066637	 0.730097
H	 0.323796	 -5.314109	 3.267847
H	 1.498359	 -6.488998	 2.704892
H	 2.028698	 -4.903778	 3.236090

14 10 7 4 F

10 7 4 8 F

8 4 3 2 F

10 13 16 20 F

20 16 19 22 F

4 3 2 1 F

