%nprocshared=1
%mem=2GB
#HF/6-31G* nosymm scf=tight 

Mol

0 1
O	 -2.042549	 -1.228399	 -0.269030
C	 -1.653912	 -0.146171	 0.050137
C	 -0.332303	 0.024011	 0.778412
C	 -2.438579	 1.106236	 -0.272369
C	 0.544965	 1.078355	 0.085136
H	 -0.501332	 0.306447	 1.813807
H	 0.175194	 -0.934240	 0.767308
C	 1.037144	 0.623282	 -1.289528
H	 1.402553	 1.313977	 0.712915
H	 -0.028857	 1.994840	 -0.014484
C	 -0.080167	 0.041664	 -2.154712
H	 1.494818	 1.464048	 -1.806319
H	 1.819884	 -0.120599	 -1.160975
H	 -0.863143	 0.774050	 -2.329677
H	 -0.535496	 -0.821421	 -1.678057
H	 0.298122	 -0.275103	 -3.121451
H	 -3.277823	 0.863061	 -0.908988
H	 -1.806773	 1.843019	 -0.759671
H	 -2.802853	 1.554979	 0.648059

11 8 5 9 F

9 5 3 2 F

