%nprocshared=1
%mem=2GB
#HF/6-31G* nosymm scf=tight 

Mol

0 1
H	 0.000000	 0.069849	 2.128177
C	 0.000000	 -0.484033	 1.211606
C	 0.000000	 -1.867295	 1.203612
C	 0.000000	 0.183220	 0.000000
H	 0.000000	 -2.404452	 2.133896
C	 0.000000	 -2.555744	 0.000000
N	 0.000000	 1.642018	 0.000000
C	 -0.000000	 -0.484034	 -1.211606
H	 0.000000	 -3.630640	 0.000000
C	 -0.000000	 -1.867295	 -1.203612
O	 1.057097	 2.196749	 0.000000
O	 -1.057097	 2.196749	 0.000000
H	 -0.000000	 0.069849	 -2.128177
H	 -0.000000	 -2.404452	 -2.133896
