%nprocshared=1
%mem=2GB
#HF/6-31G* nosymm scf=tight 

Mol

0 1
O	 1.547534	 1.816745	 0.478601
C	 0.816459	 1.661495	 1.403017
C	 -0.489220	 0.905080	 1.372918
O	 1.064699	 2.143811	 2.614167
C	 -0.823008	 0.326187	 0.001381
H	 -0.429395	 0.124065	 2.126012
H	 -1.265953	 1.584512	 1.713178
C	 -2.149452	 -0.435131	 -0.000098
H	 -0.019528	 -0.331874	 -0.314155
H	 -0.858073	 1.130080	 -0.727204
C	 -3.368779	 0.488503	 -0.000883
H	 -2.193746	 -1.087250	 -0.871175
H	 -2.195311	 -1.087803	 0.870418
C	 -3.346354	 1.505125	 -1.141597
H	 -3.422266	 1.013619	 0.950187
H	 -4.273627	 -0.111280	 -0.069069
H	 -2.469560	 2.143689	 -1.080920
H	 -4.223185	 2.144600	 -1.115337
H	 -3.327221	 1.009791	 -2.108339
C	 2.265202	 2.875938	 2.780714
H	 3.121922	 2.257594	 2.554420
H	 2.285240	 3.178310	 3.816110
H	 2.273614	 3.743688	 2.136940

15 11 8 12 F

1 2 3 6 F

9 5 3 6 F

1 2 4 20 F

