%nprocshared=1
%mem=2GB
#HF/6-31G* nosymm scf=tight opt=ModRedundant

Mol

0 1
H	 0.038000	 0.931000	 0.259000
N	 0.000000	 0.000000	 -0.111000
H	 -0.825000	 -0.433000	 0.259000
H	 0.787000	 -0.498000	 0.259000
