%nprocshared=1
%mem=2GB
#HF/6-31G* nosymm scf=tight 

Mol

0 1
H	 -2.211954	 0.759705	 -2.183093
C	 -1.775206	 0.394508	 -1.272456
C	 -2.566618	 0.077881	 -0.181420
C	 -0.409363	 0.234979	 -1.177730
H	 -3.633962	 0.195318	 -0.235521
C	 -1.990835	 -0.391216	 0.984407
H	 0.229909	 0.470465	 -2.002748
C	 0.154804	 -0.237046	 -0.000077
H	 -2.622104	 -0.631524	 1.819779
C	 -0.615166	 -0.566145	 1.120578
N	 1.611208	 -0.370857	 -0.000034
C	 -0.093669	 -1.086029	 2.442202
O	 2.274126	 0.622059	 -0.008063
O	 2.068510	 -1.474748	 0.007823
H	 0.587561	 -0.384890	 2.904217
H	 -0.928226	 -1.252020	 3.111783
H	 0.442896	 -2.016707	 2.319480
