%nprocshared=1
%mem=2GB
#HF/6-31G* nosymm scf=tight opt=ModRedundant

Mol

0 1
O	 -1.553000	 1.293000	 -0.106000
C	 -1.149000	 0.192000	 0.114000
C	 0.258000	 -0.031000	 0.642000
C	 -2.000000	 -1.032000	 -0.144000
C	 1.290000	 0.047000	 -0.494000
H	 0.330000	 -0.993000	 1.141000
H	 0.463000	 0.745000	 1.371000
C	 2.721000	 -0.143000	 0.007000
H	 1.068000	 -0.707000	 -1.245000
H	 1.194000	 1.012000	 -0.982000
H	 3.430000	 -0.078000	 -0.811000
H	 2.847000	 -1.113000	 0.479000
H	 2.983000	 0.618000	 0.736000
H	 -1.461000	 -1.755000	 -0.750000
H	 -2.917000	 -0.748000	 -0.640000
H	 -2.236000	 -1.518000	 0.800000
