%nprocshared=1
%mem=2GB
#HF/6-31G* nosymm scf=tight 

Mol

0 1
H	 3.231583	 -2.037762	 -1.800468
C	 2.351960	 -2.561725	 -1.440640
C	 1.132036	 -1.641688	 -1.423867
H	 2.189430	 -3.417281	 -2.090128
H	 2.576409	 -2.939335	 -0.447020
C	 -0.127859	 -2.340084	 -0.922563
H	 0.940091	 -1.255460	 -2.420046
H	 1.339963	 -0.779757	 -0.792018
N	 -1.268658	 -1.446027	 -0.948991
H	 -0.350414	 -3.185115	 -1.568593
H	 0.054734	 -2.753286	 0.075086
C	 -1.217365	 -0.386708	 0.039277
H	 -1.355622	 -1.044301	 -1.863373
C	 -2.452633	 0.504241	 -0.042481
H	 -1.172857	 -0.848333	 1.022069
H	 -0.315698	 0.227728	 -0.054795
C	 -3.758029	 -0.289423	 -0.010781
H	 -2.394220	 1.093569	 -0.952170
H	 -2.440793	 1.210787	 0.785871
H	 -3.816659	 -0.981993	 -0.845726
H	 -4.617837	 0.370165	 -0.069296
H	 -3.847478	 -0.867502	 0.904682

15 12 14 18 F

