%nprocshared=1
%mem=2GB
#HF/6-31G* nosymm scf=tight 

Mol

0 1
H	 -1.748661	 -2.220942	 -0.005015
C	 -1.343207	 -1.225221	 -0.013879
N	 -0.055091	 -1.100174	 -0.261126
C	 -2.150779	 -0.125890	 0.222726
C	 0.449969	 0.122615	 -0.277109
H	 -3.200618	 -0.238980	 0.422496
N	 -1.660212	 1.097703	 0.209594
C	 -0.371804	 1.219904	 -0.038265
C	 1.928147	 0.267347	 -0.541394
H	 0.029131	 2.217482	 -0.051283
C	 2.246522	 0.386109	 -2.035565
H	 2.280984	 1.154174	 -0.025733
H	 2.456423	 -0.581262	 -0.118355
H	 3.313157	 0.516073	 -2.188524
H	 1.734546	 1.238212	 -2.467168
H	 1.935820	 -0.503964	 -2.573659
