%nprocshared=1
%mem=2GB
#HF/6-31G* nosymm scf=tight 

Mol

0 1
H	 -3.161837	 0.500524	 -0.000234
C	 -2.367097	 -0.232926	 -0.000000
O	 -1.158440	 0.455814	 -0.000122
H	 -2.468853	 -0.861886	 -0.882833
H	 -2.468942	 -0.861421	 0.883154
C	 -1.058687	 1.440634	 0.983775
C	 -0.229821	 0.900235	 2.135996
H	 -2.052398	 1.724664	 1.332723
H	 -0.594517	 2.337542	 0.571450
C	 -0.987535	 -0.135283	 2.965726
H	 0.678821	 0.464722	 1.731818
H	 0.073792	 1.733510	 2.762231
H	 -1.279694	 -0.990126	 2.362145
H	 -0.373145	 -0.503326	 3.780536
H	 -1.889532	 0.287504	 3.399380

6 3 2 4 F

11 7 6 8 F

