%nprocshared=1
%mem=2GB
#HF/6-31G* nosymm scf=tight 

Mol

0 1
H	 0.075655	 1.724700	 0.560390
N	 -0.456516	 0.876527	 0.541107
C	 0.411825	 -0.271767	 0.350028
H	 -1.096509	 0.942907	 -0.226429
C	 0.971803	 -0.268062	 -1.056935
H	 1.245876	 -0.313000	 1.051925
H	 -0.173567	 -1.175924	 0.486406
O	 -0.088814	 -0.446451	 -1.951562
H	 1.476952	 0.676258	 -1.258733
H	 1.695616	 -1.072886	 -1.164576
C	 -1.350846	 -0.357298	 -1.371133
H	 -1.383933	 0.558679	 -0.797035
H	 -2.134790	 -0.327382	 -2.125797
H	 -1.543181	 -1.197284	 -0.706874

8 5 3 6 F

6 3 2 4 F

5 8 11 13 F

