%nprocshared=1
%mem=2GB
#HF/6-31G* nosymm scf=tight 

Mol

0 1
H	 -2.240291	 0.559484	 0.604969
C	 -2.008299	 -0.205926	 -0.129530
O	 -0.774054	 0.001095	 -0.743181
H	 -2.752932	 -0.160639	 -0.912984
H	 -2.076115	 -1.178578	 0.348530
C	 -0.439067	 -0.730373	 -1.909058
C	 0.834998	 -0.051832	 -2.407406
C	 -0.153503	 -2.198547	 -1.577235
C	 -1.540097	 -0.616930	 -2.968293
H	 1.608200	 -0.106902	 -1.649411
H	 0.643188	 0.994409	 -2.617078
H	 1.201861	 -0.525397	 -3.312287
H	 0.574907	 -2.267574	 -0.776184
H	 0.246244	 -2.709723	 -2.447007
H	 -1.048048	 -2.730517	 -1.271700
H	 -1.785482	 0.425036	 -3.144775
H	 -1.207046	 -1.052364	 -3.904780
H	 -2.446106	 -1.135744	 -2.673994

2 3 6 7 F

